4096
Lattice="16 0 0 0 16 0 0 0 16" physical_lattice="8 0 0 0 8 0 0 0 8" Properties=species:S:1:pos:R:3:grid_center:R:3:grid_id:I:1:density:R:1:V_ext:R:1 pbc="T T T" T=1.5 mu=nan grid_size="16 16 16" grid_spacing="0.5 0.5 0.5" grid_indexing="zero_based" ensemble=NVT N=208 local_average_spacing=0.5 source_grid_size="32 32 32" source_points_per_cell=8
X 0 0 0 0.25 0.25 0.25 1 0.1747 1.311641501301652
X 0 0 1 0.25 0.25 0.75 2 0.18964 1.130657531009491
X 0 0 2 0.25 0.25 1.25 3 0.23282 0.8781520082305995
X 0 0 3 0.25 0.25 1.75 4 0.2828 0.6009553747581642
X 0 0 4 0.25 0.25 2.25 5 0.33328 0.358367535875958
X 0 0 5 0.25 0.25 2.75 6 0.3598800000000001 0.1862896351376866
X 0 0 6 0.25 0.25 3.25 7 0.38598 0.06325306917716449
X 0 0 7 0.25 0.25 3.75 8 0.3990199999999999 -0.02146360293189285
X 0 0 8 0.25 0.25 4.25 9 0.40334 -0.02103237050504216
X 0 0 9 0.25 0.25 4.75 10 0.38746 0.07410549131416612
X 0 0 10 0.25 0.25 5.25 11 0.36434 0.2429943066268141
X 0 0 11 0.25 0.25 5.75 12 0.3275 0.4794119307472475
X 0 0 12 0.25 0.25 6.25 13 0.26708 0.7634245069497139
X 0 0 13 0.25 0.25 6.75 14 0.22642 1.054620671284746
X 0 0 14 0.25 0.25 7.25 15 0.18742 1.270570268075283
X 0 0 15 0.25 0.25 7.75 16 0.17324 1.362055754088129
X 0 1 0 0.25 0.75 0.25 17 0.22632 0.9489837410240686
X 0 1 1 0.25 0.75 0.75 18 0.24904 0.7955006177440285
X 0 1 2 0.25 0.75 1.25 19 0.27784 0.5956920282920445
X 0 1 3 0.25 0.75 1.75 20 0.31044 0.4070175461898296
X 0 1 4 0.25 0.75 2.25 21 0.35096 0.2454552461045183
X 0 1 5 0.25 0.75 2.75 22 0.37922 0.1175266653581189
X 0 1 6 0.25 0.75 3.25 23 0.40766 0.002986078920836259
X 0 1 7 0.25 0.75 3.75 24 0.4163 -0.06366979288509507
X 0 1 8 0.25 0.75 4.25 25 0.4376 -0.09238941368271683
X 0 1 9 0.25 0.75 4.75 26 0.4200800000000001 -0.02833494485458154
X 0 1 10 0.25 0.75 5.25 27 0.3898 0.1289539149018651
X 0 1 11 0.25 0.75 5.75 28 0.35332 0.35995337944607
X 0 1 12 0.25 0.75 6.25 29 0.30342 0.6177546090171926
X 0 1 13 0.25 0.75 6.75 30 0.26902 0.8379522834052735
X 0 1 14 0.25 0.75 7.25 31 0.23954 0.977434925951849
X 0 1 15 0.25 0.75 7.75 32 0.22806 1.013819562061129
X 0 2 0 0.25 1.25 0.25 33 0.27646 0.7037550475856789
X 0 2 1 0.25 1.25 0.75 34 0.28032 0.5718124467641396
X 0 2 2 0.25 1.25 1.25 35 0.31598 0.4091934506933134
X 0 2 3 0.25 1.25 1.75 36 0.3539 0.2628263454542817
X 0 2 4 0.25 1.25 2.25 37 0.37148 0.1424492585978615
X 0 2 5 0.25 1.25 2.75 38 0.38658 0.04373376267498332
X 0 2 6 0.25 1.25 3.25 39 0.42488 -0.04861884982861071
X 0 2 7 0.25 1.25 3.75 40 0.4435600000000001 -0.1079500358287856
X 0 2 8 0.25 1.25 4.25 41 0.4524199999999999 -0.1529750990478697
X 0 2 9 0.25 1.25 4.75 42 0.4497 -0.1305515994502173
X 0 2 10 0.25 1.25 5.25 43 0.40776 0.01764640693310175
X 0 2 11 0.25 1.25 5.75 44 0.39064 0.2464424871511339
X 0 2 12 0.25 1.25 6.25 45 0.33902 0.5018749812513748
X 0 2 13 0.25 1.25 6.75 46 0.29598 0.704690437806136
X 0 2 14 0.25 1.25 7.25 47 0.27308 0.8010043341694522
X 0 2 15 0.25 1.25 7.75 48 0.26936 0.7906586655956568
X 0 3 0 0.25 1.75 0.25 49 0.28768 0.590103777678574
X 0 3 1 0.25 1.75 0.75 50 0.30746 0.4545023648548348
X 0 3 2 0.25 1.75 1.25 51 0.32542 0.2904634296119024
X 0 3 3 0.25 1.75 1.75 52 0.37564 0.1501373467885134
X 0 3 4 0.25 1.75 2.25 53 0.3869 0.05581359784918873
X 0 3 5 0.25 1.75 2.75 54 0.39806 -0.01332554340690047
X 0 3 6 0.25 1.75 3.25 55 0.44298 -0.07543051287577146
X 0 3 7 0.25 1.75 3.75 56 0.44902 -0.1459088360164327
X 0 3 8 0.25 1.75 4.25 57 0.45042 -0.2040375069859655
X 0 3 9 0.25 1.75 4.75 58 0.45334 -0.2229836616392487
X 0 3 10 0.25 1.75 5.25 59 0.4453 -0.1417664341991609
X 0 3 11 0.25 1.75 5.75 60 0.41596 0.06783040988088952
X 0 3 12 0.25 1.75 6.25 61 0.37136 0.323117455966544
X 0 3 13 0.25 1.75 6.75 62 0.33858 0.5501335209549566
X 0 3 14 0.25 1.75 7.25 63 0.31118 0.6838891219169361
X 0 3 15 0.25 1.75 7.75 64 0.29506 0.6849617601559944
X 0 4 0 0.25 2.25 0.25 65 0.2903 0.5941113303619989
X 0 4 1 0.25 2.25 0.75 66 0.31232 0.4648404829514077
X 0 4 2 0.25 2.25 1.25 67 0.3264 0.3054103915494173
X 0 4 3 0.25 2.25 1.75 68 0.36426 0.1515812485012636
X 0 4 4 0.25 2.25 2.25 69 0.39478 0.03730605011143596
X 0 4 5 0.25 2.25 2.75 70 0.42098 -0.02584590948621748
X 0 4 6 0.25 2.25 3.25 71 0.42956 -0.08947373758332904
X 0 4 7 0.25 2.25 3.75 72 0.45252 -0.1711205046593346
X 0 4 8 0.25 2.25 4.25 73 0.46834 -0.2785958322376915
X 0 4 9 0.25 2.25 4.75 74 0.46716 -0.3607257949957415
X 0 4 10 0.25 2.25 5.25 75 0.45108 -0.3311233222154585
X 0 4 11 0.25 2.25 5.75 76 0.4397800000000001 -0.166234128019105
X 0 4 12 0.25 2.25 6.25 77 0.3969 0.1212378251272099
X 0 4 13 0.25 2.25 6.75 78 0.36792 0.4024393934975246
X 0 4 14 0.25 2.25 7.25 79 0.3194 0.5892636841248156
X 0 4 15 0.25 2.25 7.75 80 0.2970200000000001 0.6560407972053974
X 0 5 0 0.25 2.75 0.25 81 0.28294 0.656417700569204
X 0 5 1 0.25 2.75 0.75 82 0.2988 0.5565797294500494
X 0 5 2 0.25 2.75 1.25 83 0.3291 0.4042468898666845
X 0 5 3 0.25 2.75 1.75 84 0.35268 0.2593771802349361
X 0 5 4 0.25 2.75 2.25 85 0.37812 0.1343593005814357
X 0 5 5 0.25 2.75 2.75 86 0.42018 0.01092765035001253
X 0 5 6 0.25 2.75 3.25 87 0.4298 -0.09153816394047795
X 0 5 7 0.25 2.75 3.75 88 0.4540999999999999 -0.2035502030051071
X 0 5 8 0.25 2.75 4.25 89 0.47026 -0.3722781747191836
X 0 5 9 0.25 2.75 4.75 90 0.49842 -0.4868602446405721
X 0 5 10 0.25 2.75 5.25 91 0.50256 -0.4806790221297041
X 0 5 11 0.25 2.75 5.75 92 0.45328 -0.2932234539153817
X 0 5 12 0.25 2.75 6.25 93 0.41616 -0.005887518666532376
X 0 5 13 0.25 2.75 6.75 94 0.37304 0.284433379049505
X 0 5 14 0.25 2.75 7.25 95 0.3327 0.5045379600265395
X 0 5 15 0.25 2.75 7.75 96 0.305 0.6342913122916112
X 0 6 0 0.25 3.25 0.25 97 0.26422 0.842759199234089
X 0 6 1 0.25 3.25 0.75 98 0.27106 0.7804775743512473
X 0 6 2 0.25 3.25 1.25 99 0.29866 0.600689070046265
X 0 6 3 0.25 3.25 1.75 100 0.32892 0.4144200387501407
X 0 6 4 0.25 3.25 2.25 101 0.3621800000000001 0.2468718938593071
X 0 6 5 0.25 3.25 2.75 102 0.39966 0.09051900027750848
X 0 6 6 0.25 3.25 3.25 103 0.42512 -0.0723500417255247
X 0 6 7 0.25 3.25 3.75 104 0.46604 -0.2382118204354666
X 0 6 8 0.25 3.25 4.25 105 0.48276 -0.4262725616822676
X 0 6 9 0.25 3.25 4.75 106 0.507 -0.5616941305700399
X 0 6 10 0.25 3.25 5.25 107 0.4856800000000001 -0.5441759366834231
X 0 6 11 0.25 3.25 5.75 108 0.45482 -0.3485149210667067
X 0 6 12 0.25 3.25 6.25 109 0.41502 -0.05185670051362223
X 0 6 13 0.25 3.25 6.75 110 0.36712 0.2754167741038598
X 0 6 14 0.25 3.25 7.25 111 0.30834 0.5579437957784303
X 0 6 15 0.25 3.25 7.75 112 0.28066 0.7511694793516313
X 0 7 0 0.25 3.75 0.25 113 0.2158 1.141545576695042
X 0 7 1 0.25 3.75 0.75 114 0.2133 1.091143483535404
X 0 7 2 0.25 3.75 1.25 115 0.25098 0.8731348178488867
X 0 7 3 0.25 3.75 1.75 116 0.29044 0.6143763147248011
X 0 7 4 0.25 3.75 2.25 117 0.3379199999999999 0.3613219212283689
X 0 7 5 0.25 3.75 2.75 118 0.39534 0.1632249568272715
X 0 7 6 0.25 3.75 3.25 119 0.42322 -0.0268468654850591
X 0 7 7 0.25 3.75 3.75 120 0.4513 -0.2510605459777854
X 0 7 8 0.25 3.75 4.25 121 0.4829000000000001 -0.4319182052662938
X 0 7 9 0.25 3.75 4.75 122 0.49986 -0.5609956670051324
X 0 7 10 0.25 3.75 5.25 123 0.47626 -0.5174423821305366
X 0 7 11 0.25 3.75 5.75 124 0.4509 -0.3077947723570597
X 0 7 12 0.25 3.75 6.25 125 0.39854 0.029116025106363
X 0 7 13 0.25 3.75 6.75 126 0.3379599999999999 0.4068564670996297
X 0 7 14 0.25 3.75 7.25 127 0.28102 0.7502675553351159
X 0 7 15 0.25 3.75 7.75 128 0.23326 1.004353480712493
X 0 8 0 0.25 4.25 0.25 129 0.1684 1.492416417077757
X 0 8 1 0.25 4.25 0.75 130 0.1768 1.421762165599264
X 0 8 2 0.25 4.25 1.25 131 0.20058 1.164270391240063
X 0 8 3 0.25 4.25 1.75 132 0.24616 0.8409690741944489
X 0 8 4 0.25 4.25 2.25 133 0.30764 0.5104753655446368
X 0 8 5 0.25 4.25 2.75 134 0.36524 0.225049403536828
X 0 8 6 0.25 4.25 3.25 135 0.41466 0.01856993764700429
X 0 8 7 0.25 4.25 3.75 136 0.44586 -0.2230744312458177
X 0 8 8 0.25 4.25 4.25 137 0.47438 -0.392932226226074
X 0 8 9 0.25 4.25 4.75 138 0.5006200000000001 -0.485846316606472
X 0 8 10 0.25 4.25 5.25 139 0.46216 -0.3883260362848091
X 0 8 11 0.25 4.25 5.75 140 0.4252400000000001 -0.1368776916258168
X 0 8 12 0.25 4.25 6.25 141 0.3678 0.2287106871242787
X 0 8 13 0.25 4.25 6.75 142 0.29866 0.6473871468310055
X 0 8 14 0.25 4.25 7.25 143 0.23086 1.040946029850253
X 0 8 15 0.25 4.25 7.75 144 0.1911 1.339050531853878
X 0 9 0 0.25 4.75 0.25 145 0.12164 1.852846256370431
X 0 9 1 0.25 4.75 0.75 146 0.135 1.745073759175274
X 0 9 2 0.25 4.75 1.25 147 0.1663 1.439848242594266
X 0 9 3 0.25 4.75 1.75 148 0.21726 1.05542444861138
X 0 9 4 0.25 4.75 2.25 149 0.29312 0.6576775099027546
X 0 9 5 0.25 4.75 2.75 150 0.35078 0.3100836788820368
X 0 9 6 0.25 4.75 3.25 151 0.39254 0.05336851838598541
X 0 9 7 0.25 4.75 3.75 152 0.43258 -0.1623901482539801
X 0 9 8 0.25 4.75 4.25 153 0.4697 -0.3151924550209487
X 0 9 9 0.25 4.75 4.75 154 0.46206 -0.3403828448631329
X 0 9 10 0.25 4.75 5.25 155 0.42448 -0.1816640211126667
X 0 9 11 0.25 4.75 5.75 156 0.38488 0.1077933262957652
X 0 9 12 0.25 4.75 6.25 157 0.31708 0.510540768083444
X 0 9 13 0.25 4.75 6.75 158 0.24266 0.968190329838002
X 0 9 14 0.25 4.75 7.25 159 0.18938 1.398372048019598
X 0 9 15 0.25 4.75 7.75 160 0.13888 1.716435941977162
X 0 10 0 0.25 5.25 0.25 161 0.09817999999999999 2.172256359281706
X 0 10 1 0.25 5.25 0.75 162 0.10458 2.009160646314716
X 0 10 2 0.25 5.25 1.25 163 0.14 1.665215378802521
X 0 10 3 0.25 5.25 1.75 164 0.19276 1.23131262326701
X 0 10 4 0.25 5.25 2.25 165 0.26436 0.7837704184038963
X 0 10 5 0.25 5.25 2.75 166 0.32886 0.3944021586009979
X 0 10 6 0.25 5.25 3.25 167 0.3831000000000001 0.1056039341857449
X 0 10 7 0.25 5.25 3.75 168 0.41242 -0.09682873287768108
X 0 10 8 0.25 5.25 4.25 169 0.43698 -0.2043335687655535
X 0 10 9 0.25 5.25 4.75 170 0.43912 -0.1561814128176146
X 0 10 10 0.25 5.25 5.25 171 0.3935000000000001 0.04859136724495092
X 0 10 11 0.25 5.25 5.75 172 0.34084 0.3799736534430172
X 0 10 12 0.25 5.25 6.25 173 0.27742 0.8202228196729834
X 0 10 13 0.25 5.25 6.75 174 0.19412 1.307398868186784
X 0 10 14 0.25 5.25 7.25 175 0.1437 1.751844564130291
X 0 10 15 0.25 5.25 7.75 176 0.10648 2.062958586741557
X 0 11 0 0.25 5.75 0.25 177 0.08608 2.375946075756459
X 0 11 1 0.25 5.75 0.75 178 0.09218 2.173110913578207
X 0 11 2 0.25 5.75 1.25 179 0.12856 1.801996906180004
X 0 11 3 0.25 5.75 1.75 180 0.17846 1.338784829364772
X 0 11 4 0.25 5.75 2.25 181 0.24244 0.8667756421472014
X 0 11 5 0.25 5.75 2.75 182 0.31578 0.4573852396391747
X 0 11 6 0.25 5.75 3.25 183 0.3719 0.1515062083470073
X 0 11 7 0.25 5.75 3.75 184 0.4017600000000001 -0.03779153799975569
X 0 11 8 0.25 5.75 4.25 185 0.41984 -0.07889819690377071
X 0 11 9 0.25 5.75 4.75 186 0.39934 0.005254335736075269
X 0 11 10 0.25 5.75 5.25 187 0.3655 0.2504739075236115
X 0 11 11 0.25 5.75 5.75 188 0.29606 0.6168067343821995
X 0 11 12 0.25 5.75 6.25 189 0.22556 1.08104141688473
X 0 11 13 0.25 5.75 6.75 190 0.15782 1.579824022956283
X 0 11 14 0.25 5.75 7.25 191 0.11094 2.025763618819014
X 0 11 15 0.25 5.75 7.75 192 0.08814 2.325981034898645
X 0 12 0 0.25 6.25 0.25 193 0.07482 2.418289632742936
X 0 12 1 0.25 6.25 0.75 194 0.08556 2.20133065588231
X 0 12 2 0.25 6.25 1.25 195 0.1138 1.820648281806514
X 0 12 3 0.25 6.25 1.75 196 0.16986 1.353603013678621
X 0 12 4 0.25 6.25 2.25 197 0.2402 0.8834256386066683
X 0 12 5 0.25 6.25 2.75 198 0.2985 0.4770643645503083
X 0 12 6 0.25 6.25 3.25 199 0.36878 0.1704370325619095
X 0 12 7 0.25 6.25 3.75 200 0.39774 -0.008189505729114928
X 0 12 8 0.25 6.25 4.25 201 0.38848 0.02810974679972492
X 0 12 9 0.25 6.25 4.75 202 0.3738 0.1436617155894344
X 0 12 10 0.25 6.25 5.25 203 0.33426 0.4061239731142369
X 0 12 11 0.25 6.25 5.75 204 0.27524 0.7864714489036471
X 0 12 12 0.25 6.25 6.25 205 0.19652 1.25786560483837
X 0 12 13 0.25 6.25 6.75 206 0.1318 1.754827165168405
X 0 12 14 0.25 6.25 7.25 207 0.09306 2.178757214145433
X 0 12 15 0.25 6.25 7.75 208 0.07100000000000001 2.419548737423566
X 0 13 0 0.25 6.75 0.25 209 0.07733999999999999 2.298319935451521
X 0 13 1 0.25 6.75 0.75 210 0.09662000000000001 2.081365980428036
X 0 13 2 0.25 6.75 1.25 211 0.13012 1.712815695371769
X 0 13 3 0.25 6.75 1.75 212 0.18734 1.267280130492705
X 0 13 4 0.25 6.75 2.25 213 0.25356 0.8236058524718682
X 0 13 5 0.25 6.75 2.75 214 0.31376 0.4420080596962458
X 0 13 6 0.25 6.75 3.25 215 0.35748 0.153534935626133
X 0 13 7 0.25 6.75 3.75 216 0.38154 0.006941000748750824
X 0 13 8 0.25 6.75 4.25 217 0.388 0.06118247189728517
X 0 13 9 0.25 6.75 4.75 218 0.35626 0.2055419935662049
X 0 13 10 0.25 6.75 5.25 219 0.32226 0.4821815691540486
X 0 13 11 0.25 6.75 5.75 220 0.25028 0.872107505471553
X 0 13 12 0.25 6.75 6.25 221 0.18654 1.322977792779781
X 0 13 13 0.25 6.75 6.75 222 0.13584 1.771035412167442
X 0 13 14 0.25 6.75 7.25 223 0.09576000000000001 2.128762313938471
X 0 13 15 0.25 6.75 7.75 224 0.07782 2.315769770048763
X 0 14 0 0.25 7.25 0.25 225 0.09766 2.041362273509493
X 0 14 1 0.25 7.25 0.75 226 0.1197 1.832463932234763
X 0 14 2 0.25 7.25 1.25 227 0.14756 1.493179858640453
X 0 14 3 0.25 7.25 1.75 228 0.20324 1.092113551283674
X 0 14 4 0.25 7.25 2.25 229 0.25968 0.6965705840217714
X 0 14 5 0.25 7.25 2.75 230 0.32532 0.3583531427023408
X 0 14 6 0.25 7.25 3.25 231 0.37002 0.1211972541964351
X 0 14 7 0.25 7.25 3.75 232 0.38304 0.01505408648891332
X 0 14 8 0.25 7.25 4.25 233 0.39344 0.06963138909771117
X 0 14 9 0.25 7.25 4.75 234 0.36266 0.2085234898986555
X 0 14 10 0.25 7.25 5.25 235 0.33104 0.4316275591222971
X 0 14 11 0.25 7.25 5.75 236 0.27074 0.7901326225629087
X 0 14 12 0.25 7.25 6.25 237 0.20104 1.204659581152176
X 0 14 13 0.25 7.25 6.75 238 0.14192 1.607148511308703
X 0 14 14 0.25 7.25 7.25 239 0.11034 1.917690247054343
X 0 14 15 0.25 7.25 7.75 240 0.09498000000000001 2.072396978032195
X 0 15 0 0.25 7.75 0.25 241 0.12076 1.692510462664961
X 0 15 1 0.25 7.75 0.75 242 0.15144 1.497564306911353
X 0 15 2 0.25 7.75 1.25 243 0.18248 1.199441957152669
X 0 15 3 0.25 7.75 1.75 244 0.22918 0.8569438646015656
X 0 15 4 0.25 7.75 2.25 245 0.2952 0.5255679445901249
X 0 15 5 0.25 7.75 2.75 246 0.3487 0.255801550006636
X 0 15 6 0.25 7.75 3.25 247 0.37446 0.09874138004179919
X 0 15 7 0.25 7.75 3.75 248 0.40848 0.01231050883957995
X 0 15 8 0.25 7.75 4.25 249 0.39314 0.04319252659229741
X 0 15 9 0.25 7.75 4.75 250 0.37302 0.1589035794332224
X 0 15 10 0.25 7.75 5.25 251 0.34452 0.3427239043783173
X 0 15 11 0.25 7.75 5.75 252 0.2893 0.6232728286486733
X 0 15 12 0.25 7.75 6.25 253 0.23136 0.9886998475424942
X 0 15 13 0.25 7.75 6.75 254 0.17696 1.342868965355508
X 0 15 14 0.25 7.75 7.25 255 0.13948 1.613823187146264
X 0 15 15 0.25 7.75 7.75 256 0.11788 1.740214851452177
X 1 0 0 0.75 0.25 0.25 257 0.20414 1.171134401260832
X 1 0 1 0.75 0.25 0.75 258 0.22146 1.030133368569969
X 1 0 2 0.75 0.25 1.25 259 0.24966 0.7982982086588628
X 1 0 3 0.75 0.25 1.75 260 0.2956 0.5535351408278543
X 1 0 4 0.75 0.25 2.25 261 0.33816 0.3461932469005136
X 1 0 5 0.75 0.25 2.75 262 0.36852 0.1789195268604306
X 1 0 6 0.75 0.25 3.25 263 0.3941 0.02339675679602899
X 1 0 7 0.75 0.25 3.75 264 0.4279 -0.09966591868461035
X 1 0 8 0.75 0.25 4.25 265 0.43764 -0.1486783429043353
X 1 0 9 0.75 0.25 4.75 266 0.43012 -0.1089487502475988
X 1 0 10 0.75 0.25 5.25 267 0.40602 0.01294017510128418
X 1 0 11 0.75 0.25 5.75 268 0.36298 0.2255712683157147
X 1 0 12 0.75 0.25 6.25 269 0.31764 0.50158238244352
X 1 0 13 0.75 0.25 6.75 270 0.27616 0.794260139559674
X 1 0 14 0.75 0.25 7.25 271 0.23012 1.040529597849684
X 1 0 15 0.75 0.25 7.75 272 0.2005 1.174884484509751
X 1 1 0 0.75 0.75 0.25 273 0.25484 0.8318878248588759
X 1 1 1 0.75 0.75 0.75 274 0.2743 0.7423645143532359
X 1 1 2 0.75 0.75 1.25 275 0.29286 0.577235845872467
X 1 1 3 0.75 0.75 1.75 276 0.3248799999999999 0.3985024284384455
X 1 1 4 0.75 0.75 2.25 277 0.37192 0.2408340685147722
X 1 1 5 0.75 0.75 2.75 278 0.39688 0.09198797734470435
X 1 1 6 0.75 0.75 3.25 279 0.43932 -0.06734442343018546
X 1 1 7 0.75 0.75 3.75 280 0.43854 -0.1918242005268578
X 1 1 8 0.75 0.75 4.25 281 0.46152 -0.3017031514676154
X 1 1 9 0.75 0.75 4.75 282 0.46582 -0.3291531306166777
X 1 1 10 0.75 0.75 5.25 283 0.44558 -0.249055684648627
X 1 1 11 0.75 0.75 5.75 284 0.4154600000000001 -0.05671697744532119
X 1 1 12 0.75 0.75 6.25 285 0.37404 0.2151597987699905
X 1 1 13 0.75 0.75 6.75 286 0.32792 0.496745435278087
X 1 1 14 0.75 0.75 7.25 287 0.29338 0.7159350456542859
X 1 1 15 0.75 0.75 7.75 288 0.26196 0.8294607667817747
X 1 2 0 0.75 1.25 0.25 289 0.29964 0.5728533506476055
X 1 2 1 0.75 1.25 0.75 290 0.3069 0.5110879570663956
X 1 2 2 0.75 1.25 1.25 291 0.32176 0.3940775335136262
X 1 2 3 0.75 1.25 1.75 292 0.35242 0.2552361757079348
X 1 2 4 0.75 1.25 2.25 293 0.37584 0.1355635381911778
X 1 2 5 0.75 1.25 2.75 294 0.41068 -0.002735776329179349
X 1 2 6 0.75 1.25 3.25 295 0.44948 -0.1482783684065355
X 1 2 7 0.75 1.25 3.75 296 0.46116 -0.2923916723479226
X 1 2 8 0.75 1.25 4.25 297 0.48336 -0.457479419797905
X 1 2 9 0.75 1.25 4.75 298 0.51324 -0.5915607933571905
X 1 2 10 0.75 1.25 5.25 299 0.49414 -0.5939961592113636
X 1 2 11 0.75 1.25 5.75 300 0.4647 -0.4402020221155961
X 1 2 12 0.75 1.25 6.25 301 0.4261799999999999 -0.1597870696035513
X 1 2 13 0.75 1.25 6.75 302 0.37576 0.1598861013938126
X 1 2 14 0.75 1.25 7.25 303 0.3381 0.4237616965558911
X 1 2 15 0.75 1.25 7.75 304 0.32452 0.5590271227196306
X 1 3 0 0.75 1.75 0.25 305 0.33912 0.3695833908436046
X 1 3 1 0.75 1.75 0.75 306 0.3325 0.3283366105714855
X 1 3 2 0.75 1.75 1.25 307 0.35116 0.2412031566051208
X 1 3 3 0.75 1.75 1.75 308 0.3772 0.1341976413728797
X 1 3 4 0.75 1.75 2.25 309 0.39646 0.0430146445368382
X 1 3 5 0.75 1.75 2.75 310 0.4161 -0.07321474697345551
X 1 3 6 0.75 1.75 3.25 311 0.4710199999999999 -0.2007328912845602
X 1 3 7 0.75 1.75 3.75 312 0.47644 -0.3877038672966069
X 1 3 8 0.75 1.75 4.25 313 0.51728 -0.6618422307138152
X 1 3 9 0.75 1.75 4.75 314 0.55264 -0.9146370833599958
X 1 3 10 0.75 1.75 5.25 315 0.5364 -1.006646091173733
X 1 3 11 0.75 1.75 5.75 316 0.5198200000000001 -0.8806048141619285
X 1 3 12 0.75 1.75 6.25 317 0.4899 -0.5965007450965425
X 1 3 13 0.75 1.75 6.75 318 0.4438 -0.2507776041182453
X 1 3 14 0.75 1.75 7.25 319 0.38754 0.06600421036751487
X 1 3 15 0.75 1.75 7.75 320 0.34618 0.2916746190823307
X 1 4 0 0.75 2.25 0.25 321 0.35836 0.2659633656600457
X 1 4 1 0.75 2.25 0.75 322 0.34766 0.2845206950069141
X 1 4 2 0.75 2.25 1.25 323 0.36828 0.1984715371058649
X 1 4 3 0.75 2.25 1.75 324 0.38744 0.07557287083397672
X 1 4 4 0.75 2.25 2.25 325 0.40572 -0.0107623538179088
X 1 4 5 0.75 2.25 2.75 326 0.42338 -0.09574599437012354
X 1 4 6 0.75 2.25 3.25 327 0.4632599999999999 -0.2357870526249927
X 1 4 7 0.75 2.25 3.75 328 0.48596 -0.5154022931003601
X 1 4 8 0.75 2.25 4.25 329 0.54274 -0.8704275252524163
X 1 4 9 0.75 2.25 4.75 330 0.55928 -1.170248380202258
X 1 4 10 0.75 2.25 5.25 331 0.5747599999999999 -1.316910072461267
X 1 4 11 0.75 2.25 5.75 332 0.5539999999999999 -1.246181265417614
X 1 4 12 0.75 2.25 6.25 333 0.52246 -0.9654810034234252
X 1 4 13 0.75 2.25 6.75 334 0.47256 -0.5712372616960614
X 1 4 14 0.75 2.25 7.25 335 0.43258 -0.1930442101149477
X 1 4 15 0.75 2.25 7.75 336 0.38938 0.09188097524521735
X 1 5 0 0.75 2.75 0.25 337 0.36092 0.2091605001595277
X 1 5 1 0.75 2.75 0.75 338 0.3572 0.3155818306736117
X 1 5 2 0.75 2.75 1.25 339 0.36452 0.2564600238427894
X 1 5 3 0.75 2.75 1.75 340 0.37256 0.1430207584853953
X 1 5 4 0.75 2.75 2.25 341 0.3985399999999999 0.03099806364188456
X 1 5 5 0.75 2.75 2.75 342 0.44636 -0.1032187460711396
X 1 5 6 0.75 2.75 3.25 343 0.4853999999999999 -0.2862574695206405
X 1 5 7 0.75 2.75 3.75 344 0.5184 -0.6202992081565857
X 1 5 8 0.75 2.75 4.25 345 0.5470600000000001 -0.994495387257412
X 1 5 9 0.75 2.75 4.75 346 0.5796200000000001 -1.316813855658537
X 1 5 10 0.75 2.75 5.25 347 0.58196 -1.488890571558859
X 1 5 11 0.75 2.75 5.75 348 0.58648 -1.435544833881966
X 1 5 12 0.75 2.75 6.25 349 0.54334 -1.146252213923685
X 1 5 13 0.75 2.75 6.75 350 0.49408 -0.7403056909852458
X 1 5 14 0.75 2.75 7.25 351 0.44344 -0.3387468862156311
X 1 5 15 0.75 2.75 7.75 352 0.3997799999999999 -0.01296157969260315
X 1 6 0 0.75 3.25 0.25 353 0.34812 0.3208072575824343
X 1 6 1 0.75 3.25 0.75 354 0.33128 0.4559158356022845
X 1 6 2 0.75 3.25 1.25 355 0.33536 0.4029594783344603
X 1 6 3 0.75 3.25 1.75 356 0.3576 0.2457239471058189
X 1 6 4 0.75 3.25 2.25 357 0.38978 0.09856168835610965
X 1 6 5 0.75 3.25 2.75 358 0.44102 -0.08094704790109643
X 1 6 6 0.75 3.25 3.25 359 0.46828 -0.3432124385576263
X 1 6 7 0.75 3.25 3.75 360 0.5288999999999999 -0.669798288843463
X 1 6 8 0.75 3.25 4.25 361 0.5511600000000001 -1.024800419180786
X 1 6 9 0.75 3.25 4.75 362 0.57116 -1.339037152604362
X 1 6 10 0.75 3.25 5.25 363 0.5812200000000001 -1.51359900551609
X 1 6 11 0.75 3.25 5.75 364 0.57206 -1.432426165565124
X 1 6 12 0.75 3.25 6.25 365 0.54484 -1.139606051059606
X 1 6 13 0.75 3.25 6.75 366 0.50332 -0.7235325322449945
X 1 6 14 0.75 3.25 7.25 367 0.42776 -0.2922764959776592
X 1 6 15 0.75 3.25 7.75 368 0.3883 0.06843692010056263
X 1 7 0 0.75 3.75 0.25 369 0.30808 0.5741328050369147
X 1 7 1 0.75 3.75 0.75 370 0.2951 0.702121368992641
X 1 7 2 0.75 3.75 1.25 371 0.30852 0.6174458307751695
X 1 7 3 0.75 3.75 1.75 372 0.3359799999999999 0.382852514900877
X 1 7 4 0.75 3.75 2.25 373 0.3764 0.1517457759662544
X 1 7 5 0.75 3.75 2.75 374 0.4156 -0.06210769132343478
X 1 7 6 0.75 3.75 3.25 375 0.48194 -0.3759488476476051
X 1 7 7 0.75 3.75 3.75 376 0.5209799999999999 -0.6757757273467445
X 1 7 8 0.75 3.75 4.25 377 0.53454 -0.9781125082089788
X 1 7 9 0.75 3.75 4.75 378 0.56352 -1.254806892770364
X 1 7 10 0.75 3.75 5.25 379 0.5866399999999999 -1.38355418972231
X 1 7 11 0.75 3.75 5.75 380 0.5531400000000001 -1.266803398735973
X 1 7 12 0.75 3.75 6.25 381 0.5095799999999999 -0.9489696163169518
X 1 7 13 0.75 3.75 6.75 382 0.46436 -0.5176004969794613
X 1 7 14 0.75 3.75 7.25 383 0.3920999999999999 -0.06962883061881178
X 1 7 15 0.75 3.75 7.75 384 0.34074 0.3110781759900428
X 1 8 0 0.75 4.25 0.25 385 0.25382 0.9067575573394484
X 1 8 1 0.75 4.25 0.75 386 0.24444 0.9954976909575571
X 1 8 2 0.75 4.25 1.25 387 0.26886 0.8548119625053443
X 1 8 3 0.75 4.25 1.75 388 0.3060600000000001 0.5505091071140475
X 1 8 4 0.75 4.25 2.25 389 0.37138 0.234705665650679
X 1 8 5 0.75 4.25 2.75 390 0.4142 -0.04773031404729412
X 1 8 6 0.75 4.25 3.25 391 0.45982 -0.3715774056726839
X 1 8 7 0.75 4.25 3.75 392 0.50034 -0.6432607242187586
X 1 8 8 0.75 4.25 4.25 393 0.5233399999999999 -0.8760496751881416
X 1 8 9 0.75 4.25 4.75 394 0.5426000000000001 -1.090226787966466
X 1 8 10 0.75 4.25 5.25 395 0.55564 -1.123176004837525
X 1 8 11 0.75 4.25 5.75 396 0.5174 -0.953775813234027
X 1 8 12 0.75 4.25 6.25 397 0.49108 -0.6215797025350447
X 1 8 13 0.75 4.25 6.75 398 0.42494 -0.1839776634244022
X 1 8 14 0.75 4.25 7.25 399 0.3474599999999999 0.2700384528780804
X 1 8 15 0.75 4.25 7.75 400 0.2902399999999999 0.6536661912976194
X 1 9 0 0.75 4.75 0.25 401 0.1956 1.281211475112905
X 1 9 1 0.75 4.75 0.75 402 0.1985 1.309114628604531
X 1 9 2 0.75 4.75 1.25 403 0.21392 1.096518389927249
X 1 9 3 0.75 4.75 1.75 404 0.2678 0.7277864837638932
X 1 9 4 0.75 4.75 2.25 405 0.34802 0.3412185268949903
X 1 9 5 0.75 4.75 2.75 406 0.39568 0.009226489146974701
X 1 9 6 0.75 4.75 3.25 407 0.43598 -0.3159223773204804
X 1 9 7 0.75 4.75 3.75 408 0.49372 -0.560125625986273
X 1 9 8 0.75 4.75 4.25 409 0.5101 -0.7300432868391498
X 1 9 9 0.75 4.75 4.75 410 0.51086 -0.8545474462819032
X 1 9 10 0.75 4.75 5.25 411 0.50332 -0.7919499152944116
X 1 9 11 0.75 4.75 5.75 412 0.4836799999999999 -0.5758724473277949
X 1 9 12 0.75 4.75 6.25 413 0.42682 -0.2173185772351658
X 1 9 13 0.75 4.75 6.75 414 0.35432 0.2318888768195327
X 1 9 14 0.75 4.75 7.25 415 0.29628 0.6868369851437555
X 1 9 15 0.75 4.75 7.75 416 0.23448 1.059692334903286
X 1 10 0 0.75 5.25 0.25 417 0.15554 1.635374212898654
X 1 10 1 0.75 5.25 0.75 418 0.15534 1.60650236896211
X 1 10 2 0.75 5.25 1.25 419 0.18174 1.317048712458383
X 1 10 3 0.75 5.25 1.75 420 0.24258 0.9020532982538747
X 1 10 4 0.75 5.25 2.25 421 0.3075 0.4705488492490907
X 1 10 5 0.75 5.25 2.75 422 0.37946 0.108516953257107
X 1 10 6 0.75 5.25 3.25 423 0.43838 -0.1988876520180226
X 1 10 7 0.75 5.25 3.75 424 0.46316 -0.4215298754848608
X 1 10 8 0.75 5.25 4.25 425 0.48492 -0.5387624996825701
X 1 10 9 0.75 5.25 4.75 426 0.5073800000000001 -0.5769923281718969
X 1 10 10 0.75 5.25 5.25 427 0.46654 -0.4509962821209528
X 1 10 11 0.75 5.25 5.75 428 0.40622 -0.1850064707431339
X 1 10 12 0.75 5.25 6.25 429 0.35506 0.2064510576866954
X 1 10 13 0.75 5.25 6.75 430 0.2866 0.6697308683051737
X 1 10 14 0.75 5.25 7.25 431 0.21438 1.120328927193376
X 1 10 15 0.75 5.25 7.75 432 0.17242 1.465323317808545
X 1 11 0 0.75 5.75 0.25 433 0.11942 1.929777122213671
X 1 11 1 0.75 5.75 0.75 434 0.12704 1.819490634153612
X 1 11 2 0.75 5.75 1.25 435 0.16286 1.477969237868469
X 1 11 3 0.75 5.75 1.75 436 0.22002 1.042043768886625
X 1 11 4 0.75 5.75 2.25 437 0.29838 0.5961599494614195
X 1 11 5 0.75 5.75 2.75 438 0.3665 0.2198831622139903
X 1 11 6 0.75 5.75 3.25 439 0.41322 -0.05500747012093304
X 1 11 7 0.75 5.75 3.75 440 0.44612 -0.2594309366304737
X 1 11 8 0.75 5.75 4.25 441 0.44484 -0.3256262208501809
X 1 11 9 0.75 5.75 4.75 442 0.4493 -0.3071949024656389
X 1 11 10 0.75 5.75 5.25 443 0.4176999999999999 -0.13625119226225
X 1 11 11 0.75 5.75 5.75 444 0.36582 0.1725576330800435
X 1 11 12 0.75 5.75 6.25 445 0.30094 0.5915870164914299
X 1 11 13 0.75 5.75 6.75 446 0.21634 1.058911923370868
X 1 11 14 0.75 5.75 7.25 447 0.16546 1.487168568387782
X 1 11 15 0.75 5.75 7.75 448 0.1375 1.795352625016364
X 1 12 0 0.75 6.25 0.25 449 0.09904 2.086583133527784
X 1 12 1 0.75 6.25 0.75 450 0.12208 1.894546920338209
X 1 12 2 0.75 6.25 1.25 451 0.1544 1.541716912749361
X 1 12 3 0.75 6.25 1.75 452 0.20928 1.108420372487148
X 1 12 4 0.75 6.25 2.25 453 0.2739200000000001 0.672577273398629
X 1 12 5 0.75 6.25 2.75 454 0.33216 0.3028306918661622
X 1 12 6 0.75 6.25 3.25 455 0.3859399999999999 0.04060312813629817
X 1 12 7 0.75 6.25 3.75 456 0.42468 -0.09175051610470467
X 1 12 8 0.75 6.25 4.25 457 0.41318 -0.1229865304249962
X 1 12 9 0.75 6.25 4.75 458 0.42032 -0.0793063709801073
X 1 12 10 0.75 6.25 5.25 459 0.39208 0.1060420227724862
X 1 12 11 0.75 6.25 5.75 460 0.31698 0.4396331380628047
X 1 12 12 0.75 6.25 6.25 461 0.24934 0.8694457659102635
X 1 12 13 0.75 6.25 6.75 462 0.18176 1.33054055836512
X 1 12 14 0.75 6.25 7.25 463 0.13964 1.739086707404875
X 1 12 15 0.75 6.25 7.75 464 0.10654 2.018598492271763
X 1 13 0 0.75 6.75 0.25 465 0.10164 2.034608634554051
X 1 13 1 0.75 6.75 0.75 466 0.11814 1.830064376662238
X 1 13 2 0.75 6.75 1.25 467 0.15876 1.488371930516651
X 1 13 3 0.75 6.75 1.75 468 0.2137 1.077161252959813
X 1 13 4 0.75 6.75 2.25 469 0.27222 0.6693404841121744
X 1 13 5 0.75 6.75 2.75 470 0.33534 0.3228163726312968
X 1 13 6 0.75 6.75 3.25 471 0.38598 0.08506580831734492
X 1 13 7 0.75 6.75 3.75 472 0.4244 -0.0131974257132873
X 1 13 8 0.75 6.75 4.25 473 0.39314 0.02930078683353214
X 1 13 9 0.75 6.75 4.75 474 0.3858 0.1178799833897694
X 1 13 10 0.75 6.75 5.25 475 0.35158 0.2896428459564955
X 1 13 11 0.75 6.75 5.75 476 0.28868 0.6214182895770128
X 1 13 12 0.75 6.75 6.25 477 0.2342 1.042152603034862
X 1 13 13 0.75 6.75 6.75 478 0.16986 1.48102301034943
X 1 13 14 0.75 6.75 7.25 479 0.12316 1.849095020648613
X 1 13 15 0.75 6.75 7.75 480 0.1017 2.05299357962225
X 1 14 0 0.75 7.25 0.25 481 0.1264 1.835936610993498
X 1 14 1 0.75 7.25 0.75 482 0.14366 1.638742983857288
X 1 14 2 0.75 7.25 1.25 483 0.17018 1.323331819611454
X 1 14 3 0.75 7.25 1.75 484 0.22632 0.952016848976817
X 1 14 4 0.75 7.25 2.25 485 0.28254 0.5876528532069746
X 1 14 5 0.75 7.25 2.75 486 0.33818 0.2833662457282053
X 1 14 6 0.75 7.25 3.25 487 0.38054 0.1030630618317044
X 1 14 7 0.75 7.25 3.75 488 0.40226 0.005374336215159771
X 1 14 8 0.75 7.25 4.25 489 0.40404 0.04533348865201318
X 1 14 9 0.75 7.25 4.75 490 0.37592 0.1643439140110583
X 1 14 10 0.75 7.25 5.25 491 0.34776 0.3429436912492044
X 1 14 11 0.75 7.25 5.75 492 0.3016799999999999 0.6387212137321071
X 1 14 12 0.75 7.25 6.25 493 0.23378 1.028087120709434
X 1 14 13 0.75 7.25 6.75 494 0.17936 1.418424412478898
X 1 14 14 0.75 7.25 7.25 495 0.1396 1.723262909674321
X 1 14 15 0.75 7.25 7.75 496 0.11794 1.869873336291705
X 1 15 0 0.75 7.75 0.25 497 0.15458 1.53725741986556
X 1 15 1 0.75 7.75 0.75 498 0.17106 1.356482266982073
X 1 15 2 0.75 7.75 1.25 499 0.20686 1.077565243824132
X 1 15 3 0.75 7.75 1.75 500 0.26808 0.7588601770238167
X 1 15 4 0.75 7.75 2.25 501 0.30542 0.4562149577496745
X 1 15 5 0.75 7.75 2.75 502 0.37112 0.2361976856840538
X 1 15 6 0.75 7.75 3.25 503 0.38718 0.08792157444446691
X 1 15 7 0.75 7.75 3.75 504 0.4063200000000001 -0.0258557571675357
X 1 15 8 0.75 7.75 4.25 505 0.40426 -0.0261535901754711
X 1 15 9 0.75 7.75 4.75 506 0.39624 0.06057485083060404
X 1 15 10 0.75 7.75 5.25 507 0.38034 0.2196025566017878
X 1 15 11 0.75 7.75 5.75 508 0.33292 0.4582493652812288
X 1 15 12 0.75 7.75 6.25 509 0.27476 0.784830901121134
X 1 15 13 0.75 7.75 6.75 510 0.22406 1.134019862967041
X 1 15 14 0.75 7.75 7.25 511 0.17478 1.411769241347346
X 1 15 15 0.75 7.75 7.75 512 0.1539 1.558186406881009
X 2 0 0 1.25 0.25 0.25 513 0.23802 0.9338050279612745
X 2 0 1 1.25 0.25 0.75 514 0.24756 0.8589119161494977
X 2 0 2 1.25 0.25 1.25 515 0.2815 0.6823543711541852
X 2 0 3 1.25 0.25 1.75 516 0.31596 0.4845923578245655
X 2 0 4 1.25 0.25 2.25 517 0.33892 0.3032286159027148
X 2 0 5 1.25 0.25 2.75 518 0.3788800000000001 0.1341347619272837
X 2 0 6 1.25 0.25 3.25 519 0.4115 -0.04577541398566766
X 2 0 7 1.25 0.25 3.75 520 0.45158 -0.200349040894264
X 2 0 8 1.25 0.25 4.25 521 0.46464 -0.3187680555098352
X 2 0 9 1.25 0.25 4.75 522 0.4658599999999999 -0.3605240763371945
X 2 0 10 1.25 0.25 5.25 523 0.47148 -0.3103619606847927
X 2 0 11 1.25 0.25 5.75 524 0.4337 -0.1426153933007525
X 2 0 12 1.25 0.25 6.25 525 0.39826 0.1268966920514414
X 2 0 13 1.25 0.25 6.75 526 0.33336 0.4367317807482428
X 2 0 14 1.25 0.25 7.25 527 0.2962 0.7104457844743635
X 2 0 15 1.25 0.25 7.75 528 0.268 0.8869880733029208
X 2 1 0 1.25 0.75 0.25 529 0.29778 0.6364664426500201
X 2 1 1 1.25 0.75 0.75 530 0.29162 0.6156582128679374
X 2 1 2 1.25 0.75 1.25 531 0.30772 0.5059889391676975
X 2 1 3 1.25 0.75 1.75 532 0.35526 0.3489129665138613
X 2 1 4 1.25 0.75 2.25 533 0.36998 0.2035870642036018
X 2 1 5 1.25 0.75 2.75 534 0.41474 0.03132478129237008
X 2 1 6 1.25 0.75 3.25 535 0.45376 -0.1644332723268755
X 2 1 7 1.25 0.75 3.75 536 0.46368 -0.3547859651770494
X 2 1 8 1.25 0.75 4.25 537 0.501 -0.5710429199445941
X 2 1 9 1.25 0.75 4.75 538 0.50302 -0.7377486348456613
X 2 1 10 1.25 0.75 5.25 539 0.50956 -0.7900122485711838
X 2 1 11 1.25 0.75 5.75 540 0.4868399999999999 -0.6775442588025387
X 2 1 12 1.25 0.75 6.25 541 0.44962 -0.3985094307773209
X 2 1 13 1.25 0.75 6.75 542 0.40918 -0.02923904788573561
X 2 1 14 1.25 0.75 7.25 543 0.35536 0.3145244461285153
X 2 1 15 1.25 0.75 7.75 544 0.32158 0.542113854462919
X 2 2 0 1.25 1.25 0.25 545 0.352 0.3506018731199236
X 2 2 1 1.25 1.25 0.75 546 0.34652 0.3809864139975938
X 2 2 2 1.25 1.25 1.25 547 0.34446 0.328936955366709
X 2 2 3 1.25 1.25 1.75 548 0.3740599999999999 0.2179256841506101
X 2 2 4 1.25 1.25 2.25 549 0.38668 0.09590770144877421
X 2 2 5 1.25 1.25 2.75 550 0.4273000000000001 -0.07617790045973864
X 2 2 6 1.25 1.25 3.25 551 0.45772 -0.2763778136529201
X 2 2 7 1.25 1.25 3.75 552 0.49858 -0.5331754496714149
X 2 2 8 1.25 1.25 4.25 553 0.5294 -0.9026298317750496
X 2 2 9 1.25 1.25 4.75 554 0.57304 -1.274937047779851
X 2 2 10 1.25 1.25 5.25 555 0.57578 -1.459524251299476
X 2 2 11 1.25 1.25 5.75 556 0.5881599999999999 -1.398663245053245
X 2 2 12 1.25 1.25 6.25 557 0.54414 -1.101522416201969
X 2 2 13 1.25 1.25 6.75 558 0.49036 -0.6594058172149022
X 2 2 14 1.25 1.25 7.25 559 0.43336 -0.1997210603995868
X 2 2 15 1.25 1.25 7.75 560 0.37404 0.1663395212921422
X 2 3 0 1.25 1.75 0.25 561 0.3923399999999999 0.04906146864767977
X 2 3 1 1.25 1.75 0.75 562 0.3720000000000001 0.1817080189523158
X 2 3 2 1.25 1.75 1.25 563 0.3767 0.1759200154693835
X 2 3 3 1.25 1.75 1.75 564 0.37984 0.1066559111598379
X 2 3 4 1.25 1.75 2.25 565 0.41978 -0.0004885152658035789
X 2 3 5 1.25 1.75 2.75 566 0.45914 -0.1518808355159067
X 2 3 6 1.25 1.75 3.25 567 0.48524 -0.3678339132939062
X 2 3 7 1.25 1.75 3.75 568 0.51746 -0.7753720998220759
X 2 3 8 1.25 1.75 4.25 569 0.5824 -1.300966201769899
X 2 3 9 1.25 1.75 4.75 570 0.60648 -1.796114190267856
X 2 3 10 1.25 1.75 5.25 571 0.63392 -2.101460950884511
X 2 3 11 1.25 1.75 5.75 572 0.62946 -2.08716106238201
X 2 3 12 1.25 1.75 6.25 573 0.59748 -1.775690456191641
X 2 3 13 1.25 1.75 6.75 574 0.5541400000000001 -1.275652216900709
X 2 3 14 1.25 1.75 7.25 575 0.5084 -0.7359541743615153
X 2 3 15 1.25 1.75 7.75 576 0.44424 -0.2753641458499286
X 2 4 0 1.25 2.25 0.25 577 0.44578 -0.216055248849157
X 2 4 1 1.25 2.25 0.75 578 0.4041999999999999 0.03017864307545332
X 2 4 2 1.25 2.25 1.25 579 0.39314 0.07233634795236016
X 2 4 3 1.25 2.25 1.75 580 0.42028 0.02210510595653315
X 2 4 4 1.25 2.25 2.25 581 0.41908 -0.05430455719882246
X 2 4 5 1.25 2.25 2.75 582 0.4483199999999999 -0.1858488520990087
X 2 4 6 1.25 2.25 3.25 583 0.4978 -0.4924950777883826
X 2 4 7 1.25 2.25 3.75 584 0.55002 -1.003445888036543
X 2 4 8 1.25 2.25 4.25 585 0.59228 -1.604745491903055
X 2 4 9 1.25 2.25 4.75 586 0.6375799999999999 -2.172046411909306
X 2 4 10 1.25 2.25 5.25 587 0.6741400000000001 -2.544091475668132
X 2 4 11 1.25 2.25 5.75 588 0.6586800000000002 -2.593700150664939
X 2 4 12 1.25 2.25 6.25 589 0.6452 -2.293936997983969
X 2 4 13 1.25 2.25 6.75 590 0.60892 -1.761076045033401
X 2 4 14 1.25 2.25 7.25 591 0.5442399999999999 -1.155184560766028
X 2 4 15 1.25 2.25 7.75 592 0.4848000000000001 -0.6152544560379637
X 2 5 0 1.25 2.75 0.25 593 0.4517399999999999 -0.332718242392676
X 2 5 1 1.25 2.75 0.75 594 0.4101 -0.03693422340844926
X 2 5 2 1.25 2.75 1.25 595 0.3984200000000001 0.08776208556223783
X 2 5 3 1.25 2.75 1.75 596 0.4172399999999999 0.02770188405524062
X 2 5 4 1.25 2.75 2.25 597 0.43588 -0.07468531591317272
X 2 5 5 1.25 2.75 2.75 598 0.45714 -0.2362008091488668
X 2 5 6 1.25 2.75 3.25 599 0.5143800000000001 -0.614564171591904
X 2 5 7 1.25 2.75 3.75 600 0.55614 -1.14190259571419
X 2 5 8 1.25 2.75 4.25 601 0.6282399999999999 -1.755438093591665
X 2 5 9 1.25 2.75 4.75 602 0.6667999999999999 -2.337123790999709
X 2 5 10 1.25 2.75 5.25 603 0.6555800000000001 -2.727149925655266
X 2 5 11 1.25 2.75 5.75 604 0.6779999999999999 -2.802060893092089
X 2 5 12 1.25 2.75 6.25 605 0.6670999999999999 -2.528705466392998
X 2 5 13 1.25 2.75 6.75 606 0.6139600000000001 -1.984859790701312
X 2 5 14 1.25 2.75 7.25 607 0.55306 -1.349204248652388
X 2 5 15 1.25 2.75 7.75 608 0.50268 -0.7743294356247759
X 2 6 0 1.25 3.25 0.25 609 0.43262 -0.2695914441474676
X 2 6 1 1.25 3.25 0.75 610 0.39644 0.02383134252823406
X 2 6 2 1.25 3.25 1.25 611 0.38032 0.1634362777486349
X 2 6 3 1.25 3.25 1.75 612 0.4016 0.07151758252004858
X 2 6 4 1.25 3.25 2.25 613 0.43594 -0.0787589559448046
X 2 6 5 1.25 3.25 2.75 614 0.46524 -0.327430538667119
X 2 6 6 1.25 3.25 3.25 615 0.51744 -0.7143435521150091
X 2 6 7 1.25 3.25 3.75 616 0.56046 -1.198678666101392
X 2 6 8 1.25 3.25 4.25 617 0.6149200000000001 -1.75392808648555
X 2 6 9 1.25 3.25 4.75 618 0.6699000000000001 -2.286050692354495
X 2 6 10 1.25 3.25 5.25 619 0.67702 -2.65488150821771
X 2 6 11 1.25 3.25 5.75 620 0.6833 -2.727778251004639
X 2 6 12 1.25 3.25 6.25 621 0.6599999999999999 -2.443553060284449
X 2 6 13 1.25 3.25 6.75 622 0.60442 -1.911208021015658
X 2 6 14 1.25 3.25 7.25 623 0.56354 -1.2896649770368
X 2 6 15 1.25 3.25 7.75 624 0.4804199999999999 -0.7148737690310494
X 2 7 0 1.25 3.75 0.25 625 0.40416 -0.05171874482488395
X 2 7 1 1.25 3.75 0.75 626 0.3629 0.2074250966437675
X 2 7 2 1.25 3.75 1.25 627 0.3579 0.2917280222871404
X 2 7 3 1.25 3.75 1.75 628 0.3903599999999999 0.1230867687713185
X 2 7 4 1.25 3.75 2.25 629 0.4256799999999999 -0.1031615201324317
X 2 7 5 1.25 3.75 2.75 630 0.4742399999999999 -0.4276683621773939
X 2 7 6 1.25 3.75 3.25 631 0.53784 -0.8084030719416799
X 2 7 7 1.25 3.75 3.75 632 0.5637 -1.202953220511324
X 2 7 8 1.25 3.75 4.25 633 0.60262 -1.643671932069362
X 2 7 9 1.25 3.75 4.75 634 0.6508600000000001 -2.075424382185727
X 2 7 10 1.25 3.75 5.25 635 0.65778 -2.385697112641644
X 2 7 11 1.25 3.75 5.75 636 0.65424 -2.404058897769371
X 2 7 12 1.25 3.75 6.25 637 0.6331 -2.103701290067932
X 2 7 13 1.25 3.75 6.75 638 0.57122 -1.597127747927336
X 2 7 14 1.25 3.75 7.25 639 0.5344599999999999 -1.011898462363138
X 2 7 15 1.25 3.75 7.75 640 0.47016 -0.4697443257162326
X 2 8 0 1.25 4.25 0.25 641 0.34676 0.257629207212178
X 2 8 1 1.25 4.25 0.75 642 0.32444 0.459930197035493
X 2 8 2 1.25 4.25 1.25 643 0.3191 0.4607179503010668
X 2 8 3 1.25 4.25 1.75 644 0.3675 0.211204912714569
X 2 8 4 1.25 4.25 2.25 645 0.43256 -0.1134436453839921
X 2 8 5 1.25 4.25 2.75 646 0.48404 -0.5021872171355503
X 2 8 6 1.25 4.25 3.25 647 0.52898 -0.8725605442262869
X 2 8 7 1.25 4.25 3.75 648 0.5735600000000001 -1.163077719481098
X 2 8 8 1.25 4.25 4.25 649 0.5912599999999999 -1.467934362953536
X 2 8 9 1.25 4.25 4.75 650 0.6187 -1.779134931857782
X 2 8 10 1.25 4.25 5.25 651 0.64278 -1.977899170687706
X 2 8 11 1.25 4.25 5.75 652 0.6040000000000001 -1.907330861044052
X 2 8 12 1.25 4.25 6.25 653 0.59504 -1.606949646073809
X 2 8 13 1.25 4.25 6.75 654 0.5296 -1.137739599475707
X 2 8 14 1.25 4.25 7.25 655 0.4757400000000001 -0.6031177186366088
X 2 8 15 1.25 4.25 7.75 656 0.40616 -0.1112903975351073
X 2 9 0 1.25 4.75 0.25 657 0.297 0.6284115976208359
X 2 9 1 1.25 4.75 0.75 658 0.28138 0.7516780961007318
X 2 9 2 1.25 4.75 1.25 659 0.29354 0.6693490092805048
X 2 9 3 1.25 4.75 1.75 660 0.34352 0.3329717763256113
X 2 9 4 1.25 4.75 2.25 661 0.40332 -0.0681811762542401
X 2 9 5 1.25 4.75 2.75 662 0.46428 -0.4722789274496316
X 2 9 6 1.25 4.75 3.25 663 0.52152 -0.8443194825605991
X 2 9 7 1.25 4.75 3.75 664 0.53718 -1.050295150282574
X 2 9 8 1.25 4.75 4.25 665 0.5805199999999999 -1.2414246389981
X 2 9 9 1.25 4.75 4.75 666 0.57228 -1.429549795505883
X 2 9 10 1.25 4.75 5.25 667 0.5856 -1.496847589065023
X 2 9 11 1.25 4.75 5.75 668 0.5571200000000001 -1.361412669373377
X 2 9 12 1.25 4.75 6.25 669 0.52926 -1.046461852176512
X 2 9 13 1.25 4.75 6.75 670 0.45546 -0.6010516611678856
X 2 9 14 1.25 4.75 7.25 671 0.3938200000000001 -0.114076129703791
X 2 9 15 1.25 4.75 7.75 672 0.33286 0.3205923583403199
X 2 10 0 1.25 5.25 0.25 673 0.2367 1.00472951618513
X 2 10 1 1.25 5.25 0.75 674 0.23272 1.053739146243041
X 2 10 2 1.25 5.25 1.25 675 0.25132 0.89532478277196
X 2 10 3 1.25 5.25 1.75 676 0.31968 0.4968822259611568
X 2 10 4 1.25 5.25 2.25 677 0.3867 0.06130708334072254
X 2 10 5 1.25 5.25 2.75 678 0.4463 -0.3264213797619269
X 2 10 6 1.25 5.25 3.25 679 0.50634 -0.6747526808146784
X 2 10 7 1.25 5.25 3.75 680 0.51476 -0.8377641116494563
X 2 10 8 1.25 5.25 4.25 681 0.5446 -0.9621023406269037
X 2 10 9 1.25 5.25 4.75 682 0.5442600000000001 -1.042807830928761
X 2 10 10 1.25 5.25 5.25 683 0.53918 -1.022543620429921
X 2 10 11 1.25 5.25 5.75 684 0.50964 -0.8216606808365352
X 2 10 12 1.25 5.25 6.25 685 0.45154 -0.4743897997247788
X 2 10 13 1.25 5.25 6.75 686 0.38658 -0.03825907689257654
X 2 10 14 1.25 5.25 7.25 687 0.3238 0.4035793580316417
X 2 10 15 1.25 5.25 7.75 688 0.26478 0.7751100295105495
X 2 11 0 1.25 5.75 0.25 689 0.19586 1.334880937207528
X 2 11 1 1.25 5.75 0.75 690 0.18912 1.329891707151805
X 2 11 2 1.25 5.75 1.25 691 0.22528 1.081921010279566
X 2 11 3 1.25 5.75 1.75 692 0.28198 0.6696726438181825
X 2 11 4 1.25 5.75 2.25 693 0.34346 0.2418946026877076
X 2 11 5 1.25 5.75 2.75 694 0.40144 -0.1103250885419143
X 2 11 6 1.25 5.75 3.25 695 0.4621 -0.4070759328715398
X 2 11 7 1.25 5.75 3.75 696 0.48112 -0.568174260762449
X 2 11 8 1.25 5.75 4.25 697 0.49908 -0.6433437081101641
X 2 11 9 1.25 5.75 4.75 698 0.49066 -0.6585404725201368
X 2 11 10 1.25 5.75 5.25 699 0.48478 -0.583293465685411
X 2 11 11 1.25 5.75 5.75 700 0.44534 -0.3239137762605087
X 2 11 12 1.25 5.75 6.25 701 0.37662 0.06391564474099221
X 2 11 13 1.25 5.75 6.75 702 0.3008 0.4965023035909164
X 2 11 14 1.25 5.75 7.25 703 0.24212 0.8859325829345298
X 2 11 15 1.25 5.75 7.75 704 0.21274 1.176838478982705
X 2 12 0 1.25 6.25 0.25 705 0.15486 1.579785079606546
X 2 12 1 1.25 6.25 0.75 706 0.17252 1.49170555384236
X 2 12 2 1.25 6.25 1.25 707 0.21134 1.183084012539902
X 2 12 3 1.25 6.25 1.75 708 0.26354 0.791428539943232
X 2 12 4 1.25 6.25 2.25 709 0.32908 0.3947594925776901
X 2 12 5 1.25 6.25 2.75 710 0.37812 0.06759645975273686
X 2 12 6 1.25 6.25 3.25 711 0.43636 -0.1369363425423191
X 2 12 7 1.25 6.25 3.75 712 0.45806 -0.295711330312277
X 2 12 8 1.25 6.25 4.25 713 0.47154 -0.3548482761210483
X 2 12 9 1.25 6.25 4.75 714 0.45132 -0.3309904931998696
X 2 12 10 1.25 6.25 5.25 715 0.4318 -0.2183580401719531
X 2 12 11 1.25 6.25 5.75 716 0.3802 0.07417057057168561
X 2 12 12 1.25 6.25 6.25 717 0.31862 0.483726249598582
X 2 12 13 1.25 6.25 6.75 718 0.2455 0.9001698465792947
X 2 12 14 1.25 6.25 7.25 719 0.19716 1.241097367759962
X 2 12 15 1.25 6.25 7.75 720 0.16654 1.475203720325418
X 2 13 0 1.25 6.75 0.25 721 0.14236 1.657269319525303
X 2 13 1 1.25 6.75 0.75 722 0.16104 1.480002132333191
X 2 13 2 1.25 6.75 1.25 723 0.20502 1.179786350597459
X 2 13 3 1.25 6.75 1.75 724 0.24658 0.8187679497846161
X 2 13 4 1.25 6.75 2.25 725 0.3136 0.4606050983464252
X 2 13 5 1.25 6.75 2.75 726 0.37784 0.1709321957197268
X 2 13 6 1.25 6.75 3.25 727 0.40016 0.01439386966210573
X 2 13 7 1.25 6.75 3.75 728 0.42806 -0.07905215521826114
X 2 13 8 1.25 6.75 4.25 729 0.42742 -0.1118142811673547
X 2 13 9 1.25 6.75 4.75 730 0.41788 -0.07808441228683309
X 2 13 10 1.25 6.75 5.25 731 0.41848 0.04212138739491952
X 2 13 11 1.25 6.75 5.75 732 0.3567 0.3113126918254692
X 2 13 12 1.25 6.75 6.25 733 0.28 0.7129980084849942
X 2 13 13 1.25 6.75 6.75 734 0.21282 1.115883829182318
X 2 13 14 1.25 6.75 7.25 735 0.17112 1.432373578489387
X 2 13 15 1.25 6.75 7.75 736 0.14596 1.627242869967039
X 2 14 0 1.25 7.25 0.25 737 0.15726 1.519776680564374
X 2 14 1 1.25 7.25 0.75 738 0.17818 1.343987003339072
X 2 14 2 1.25 7.25 1.25 739 0.21942 1.069921035880752
X 2 14 3 1.25 7.25 1.75 740 0.27428 0.7473869894667017
X 2 14 4 1.25 7.25 2.25 741 0.32322 0.435961419013654
X 2 14 5 1.25 7.25 2.75 742 0.36824 0.2101258898200156
X 2 14 6 1.25 7.25 3.25 743 0.39044 0.06760833483184288
X 2 14 7 1.25 7.25 3.75 744 0.4315999999999999 -0.02627534434904669
X 2 14 8 1.25 7.25 4.25 745 0.41568 -0.0198127675753089
X 2 14 9 1.25 7.25 4.75 746 0.4046999999999999 0.03873066248259962
X 2 14 10 1.25 7.25 5.25 747 0.38806 0.1585780139026541
X 2 14 11 1.25 7.25 5.75 748 0.34856 0.3809642617916852
X 2 14 12 1.25 7.25 6.25 749 0.28502 0.7247437308937926
X 2 14 13 1.25 7.25 6.75 750 0.2207 1.102802725043437
X 2 14 14 1.25 7.25 7.25 751 0.17962 1.403123036975174
X 2 14 15 1.25 7.25 7.75 752 0.158 1.552180249424716
X 2 15 0 1.25 7.75 0.25 753 0.18384 1.261770464147338
X 2 15 1 1.25 7.75 0.75 754 0.20608 1.119848450908068
X 2 15 2 1.25 7.75 1.25 755 0.23982 0.8786774455500934
X 2 15 3 1.25 7.75 1.75 756 0.29212 0.6129882121899254
X 2 15 4 1.25 7.75 2.25 757 0.3303800000000001 0.379803893258619
X 2 15 5 1.25 7.75 2.75 758 0.375 0.1992405835375212
X 2 15 6 1.25 7.75 3.25 759 0.39506 0.04375824250348471
X 2 15 7 1.25 7.75 3.75 760 0.43308 -0.08631613612297551
X 2 15 8 1.25 7.75 4.25 761 0.44178 -0.1264947775800543
X 2 15 9 1.25 7.75 4.75 762 0.4407 -0.08541898066284223
X 2 15 10 1.25 7.75 5.25 763 0.40558 0.03087332602171719
X 2 15 11 1.25 7.75 5.75 764 0.36958 0.2383511802962631
X 2 15 12 1.25 7.75 6.25 765 0.32228 0.5184638670988355
X 2 15 13 1.25 7.75 6.75 766 0.26748 0.8294401279779393
X 2 15 14 1.25 7.75 7.25 767 0.2142 1.097088511876898
X 2 15 15 1.25 7.75 7.75 768 0.19654 1.25149173034141
X 3 0 0 1.75 0.25 0.25 769 0.2848 0.6835646476372121
X 3 0 1 1.75 0.25 0.75 770 0.28902 0.6651535347955334
X 3 0 2 1.75 0.25 1.25 771 0.30964 0.5458214734639375
X 3 0 3 1.75 0.25 1.75 772 0.33798 0.3847178493512516
X 3 0 4 1.75 0.25 2.25 773 0.3738 0.2323696294675581
X 3 0 5 1.75 0.25 2.75 774 0.41446 0.06622968466573118
X 3 0 6 1.75 0.25 3.25 775 0.44288 -0.1226600942302697
X 3 0 7 1.75 0.25 3.75 776 0.4701200000000001 -0.2987617590923603
X 3 0 8 1.75 0.25 4.25 777 0.48486 -0.4892509854033649
X 3 0 9 1.75 0.25 4.75 778 0.508 -0.6224945989363614
X 3 0 10 1.75 0.25 5.25 779 0.51252 -0.6492801861718457
X 3 0 11 1.75 0.25 5.75 780 0.4750000000000001 -0.5348144636049802
X 3 0 12 1.75 0.25 6.25 781 0.44092 -0.2770369624733932
X 3 0 13 1.75 0.25 6.75 782 0.38868 0.05386521882914101
X 3 0 14 1.75 0.25 7.25 783 0.3456 0.3640086491940972
X 3 0 15 1.75 0.25 7.75 784 0.31008 0.5848421278429758
X 3 1 0 1.75 0.75 0.25 785 0.34584 0.3913899207101474
X 3 1 1 1.75 0.75 0.75 786 0.33394 0.4415480878062837
X 3 1 2 1.75 0.75 1.25 787 0.3446 0.3908036893837271
X 3 1 3 1.75 0.75 1.75 788 0.37018 0.2710551685125954
X 3 1 4 1.75 0.75 2.25 789 0.39544 0.1395651768337118
X 3 1 5 1.75 0.75 2.75 790 0.42716 -0.04198121938926337
X 3 1 6 1.75 0.75 3.25 791 0.47504 -0.2621836995945147
X 3 1 7 1.75 0.75 3.75 792 0.5092399999999999 -0.5165295636172549
X 3 1 8 1.75 0.75 4.25 793 0.5396000000000001 -0.8533312192691631
X 3 1 9 1.75 0.75 4.75 794 0.56532 -1.200424148849992
X 3 1 10 1.75 0.75 5.25 795 0.5822999999999999 -1.399494134204653
X 3 1 11 1.75 0.75 5.75 796 0.56908 -1.367773542595169
X 3 1 12 1.75 0.75 6.25 797 0.52894 -1.091145500501717
X 3 1 13 1.75 0.75 6.75 798 0.48058 -0.6477261654365388
X 3 1 14 1.75 0.75 7.25 799 0.4213600000000001 -0.1707608872099574
X 3 1 15 1.75 0.75 7.75 800 0.37064 0.1992986889233934
X 3 2 0 1.75 1.25 0.25 801 0.40292 0.06950421079302768
X 3 2 1 1.75 1.25 0.75 802 0.38184 0.2195115538622912
X 3 2 2 1.75 1.25 1.25 803 0.37242 0.2304650567937809
X 3 2 3 1.75 1.25 1.75 804 0.38504 0.1605349815484655
X 3 2 4 1.75 1.25 2.25 805 0.41066 0.03552193503752973
X 3 2 5 1.75 1.25 2.75 806 0.4530399999999999 -0.154613850694422
X 3 2 6 1.75 1.25 3.25 807 0.48512 -0.4034398591852661
X 3 2 7 1.75 1.25 3.75 808 0.54076 -0.8164292133892099
X 3 2 8 1.75 1.25 4.25 809 0.58212 -1.394207410279308
X 3 2 9 1.75 1.25 4.75 810 0.63456 -1.966174525744367
X 3 2 10 1.75 1.25 5.25 811 0.64072 -2.330788081518988
X 3 2 11 1.75 1.25 5.75 812 0.6654800000000001 -2.364327805547437
X 3 2 12 1.75 1.25 6.25 813 0.62942 -2.056148593110935
X 3 2 13 1.75 1.25 6.75 814 0.58186 -1.50384685973857
X 3 2 14 1.75 1.25 7.25 815 0.51688 -0.8735570090468679
X 3 2 15 1.75 1.25 7.75 816 0.45998 -0.3166166716942715
X 3 3 0 1.75 1.75 0.25 817 0.4576999999999999 -0.3218243703604529
X 3 3 1 1.75 1.75 0.75 818 0.41342 0.004131073435380385
X 3 3 2 1.75 1.75 1.25 819 0.40728 0.09112210600001949
X 3 3 3 1.75 1.75 1.75 820 0.42328 0.06398143579304544
X 3 3 4 1.75 1.75 2.25 821 0.4509 -0.05302330984012339
X 3 3 5 1.75 1.75 2.75 822 0.46536 -0.2287928331532904
X 3 3 6 1.75 1.75 3.25 823 0.5002800000000001 -0.583745696395891
X 3 3 7 1.75 1.75 3.75 824 0.5828199999999999 -1.193012111558108
X 3 3 8 1.75 1.75 4.25 825 0.6390600000000001 -1.937294957122213
X 3 3 9 1.75 1.75 4.75 826 0.67944 -2.6705842521861
X 3 3 10 1.75 1.75 5.25 827 0.69518 -3.187713208611851
X 3 3 11 1.75 1.75 5.75 828 0.6959000000000001 -3.292155748980358
X 3 3 12 1.75 1.75 6.25 829 0.6773800000000001 -2.956502394258981
X 3 3 13 1.75 1.75 6.75 830 0.6202199999999999 -2.30685741663219
X 3 3 14 1.75 1.75 7.25 831 0.5845400000000001 -1.542876470561005
X 3 3 15 1.75 1.75 7.75 832 0.5192 -0.8475947929507633
X 3 4 0 1.75 2.25 0.25 833 0.50596 -0.6589446753802374
X 3 4 1 1.75 2.25 0.75 834 0.4513199999999999 -0.23716298416931
X 3 4 2 1.75 2.25 1.25 835 0.41552 -0.0186618514665071
X 3 4 3 1.75 2.25 1.75 836 0.42228 -0.006679991311362397
X 3 4 4 1.75 2.25 2.25 837 0.44984 -0.09448446525227497
X 3 4 5 1.75 2.25 2.75 838 0.47084 -0.3029193361253551
X 3 4 6 1.75 2.25 3.25 839 0.5396 -0.7897309708150977
X 3 4 7 1.75 2.25 3.75 840 0.6091800000000001 -1.489926488940124
X 3 4 8 1.75 2.25 4.25 841 0.65798 -2.334799751964584
X 3 4 9 1.75 2.25 4.75 842 0.7151000000000001 -3.16639261190767
X 3 4 10 1.75 2.25 5.25 843 0.74114 -3.760338519651007
X 3 4 11 1.75 2.25 5.75 844 0.73186 -3.926693826516019
X 3 4 12 1.75 2.25 6.25 845 0.72724 -3.602580021562647
X 3 4 13 1.75 2.25 6.75 846 0.6872199999999998 -2.904970779266112
X 3 4 14 1.75 2.25 7.25 847 0.6168400000000001 -2.061172187400748
X 3 4 15 1.75 2.25 7.75 848 0.56404 -1.274533503284659
X 3 5 0 1.75 2.75 0.25 849 0.52626 -0.8458320683081419
X 3 5 1 1.75 2.75 0.75 850 0.47438 -0.3839969675673472
X 3 5 2 1.75 2.75 1.25 851 0.43338 -0.09258675596746857
X 3 5 3 1.75 2.75 1.75 852 0.4393600000000001 -0.03901752988446319
X 3 5 4 1.75 2.75 2.25 853 0.46374 -0.1344793665560822
X 3 5 5 1.75 2.75 2.75 854 0.50218 -0.424000985843028
X 3 5 6 1.75 2.75 3.25 855 0.5520799999999999 -0.9508516395325026
X 3 5 7 1.75 2.75 3.75 856 0.6061 -1.663091392713458
X 3 5 8 1.75 2.75 4.25 857 0.6541 -2.513218726760203
X 3 5 9 1.75 2.75 4.75 858 0.71684 -3.350930829024687
X 3 5 10 1.75 2.75 5.25 859 0.74444 -3.955502482456746
X 3 5 11 1.75 2.75 5.75 860 0.73692 -4.136725748998112
X 3 5 12 1.75 2.75 6.25 861 0.7341800000000001 -3.839811184061167
X 3 5 13 1.75 2.75 6.75 862 0.7115400000000002 -3.170352110679127
X 3 5 14 1.75 2.75 7.25 863 0.65404 -2.322494249908482
X 3 5 15 1.75 2.75 7.75 864 0.57914 -1.502564142394598
X 3 6 0 1.75 3.25 0.25 865 0.51898 -0.8275163486447743
X 3 6 1 1.75 3.25 0.75 866 0.46412 -0.3808215646834491
X 3 6 2 1.75 3.25 1.25 867 0.43832 -0.1136890450889409
X 3 6 3 1.75 3.25 1.75 868 0.43766 -0.07774474454289519
X 3 6 4 1.75 3.25 2.25 869 0.46716 -0.2298019229765985
X 3 6 5 1.75 3.25 2.75 870 0.50928 -0.5830604344016196
X 3 6 6 1.75 3.25 3.25 871 0.5647 -1.089380765426812
X 3 6 7 1.75 3.25 3.75 872 0.6309 -1.730567270796543
X 3 6 8 1.75 3.25 4.25 873 0.65442 -2.482492022116433
X 3 6 9 1.75 3.25 4.75 874 0.7032200000000001 -3.22882076702917
X 3 6 10 1.75 3.25 5.25 875 0.72444 -3.778334527323913
X 3 6 11 1.75 3.25 5.75 876 0.7541399999999999 -3.956346143596951
X 3 6 12 1.75 3.25 6.25 877 0.7208199999999999 -3.697134366058624
X 3 6 13 1.75 3.25 6.75 878 0.69624 -3.06421316973635
X 3 6 14 1.75 3.25 7.25 879 0.6574800000000001 -2.251554492524122
X 3 6 15 1.75 3.25 7.75 880 0.5826 -1.465504986983067
X 3 7 0 1.75 3.75 0.25 881 0.49218 -0.6480658631869288
X 3 7 1 1.75 3.75 0.75 882 0.4459 -0.2609103602265034
X 3 7 2 1.75 3.75 1.25 883 0.4310600000000001 -0.07106255858638709
X 3 7 3 1.75 3.75 1.75 884 0.43062 -0.1208033255319463
X 3 7 4 1.75 3.75 2.25 885 0.47648 -0.374458568351001
X 3 7 5 1.75 3.75 2.75 886 0.52558 -0.7826420091079794
X 3 7 6 1.75 3.75 3.25 887 0.5697 -1.233653200477752
X 3 7 7 1.75 3.75 3.75 888 0.61856 -1.738634249770469
X 3 7 8 1.75 3.75 4.25 889 0.6721599999999999 -2.312588600589925
X 3 7 9 1.75 3.75 4.75 890 0.68786 -2.89484686139647
X 3 7 10 1.75 3.75 5.25 891 0.6946599999999999 -3.340102778483711
X 3 7 11 1.75 3.75 5.75 892 0.7203200000000001 -3.490501958815094
X 3 7 12 1.75 3.75 6.25 893 0.6956600000000001 -3.234361595620166
X 3 7 13 1.75 3.75 6.75 894 0.66606 -2.650426213023387
X 3 7 14 1.75 3.75 7.25 895 0.6162200000000001 -1.925366603891211
X 3 7 15 1.75 3.75 7.75 896 0.54438 -1.220619526424269
X 3 8 0 1.75 4.25 0.25 897 0.44176 -0.3649830722755227
X 3 8 1 1.75 4.25 0.75 898 0.4116399999999999 -0.05772332611783926
X 3 8 2 1.75 4.25 1.25 899 0.41056 0.03372190526553785
X 3 8 3 1.75 4.25 1.75 900 0.44594 -0.1217375372665384
X 3 8 4 1.75 4.25 2.25 901 0.47814 -0.4951349920719387
X 3 8 5 1.75 4.25 2.75 902 0.5329 -0.9676800439941431
X 3 8 6 1.75 4.25 3.25 903 0.57286 -1.351530019454167
X 3 8 7 1.75 4.25 3.75 904 0.5989599999999999 -1.697384638521036
X 3 8 8 1.75 4.25 4.25 905 0.63572 -2.067287619010961
X 3 8 9 1.75 4.25 4.75 906 0.6613199999999999 -2.462090575717381
X 3 8 10 1.75 4.25 5.25 907 0.6816 -2.775101170595815
X 3 8 11 1.75 4.25 5.75 908 0.68668 -2.836422143398619
X 3 8 12 1.75 4.25 6.25 909 0.6504800000000001 -2.570793158898804
X 3 8 13 1.75 4.25 6.75 910 0.6474599999999999 -2.065911631938448
X 3 8 14 1.75 4.25 7.25 911 0.5723200000000001 -1.449336189497292
X 3 8 15 1.75 4.25 7.75 912 0.50584 -0.8492110698103422
X 3 9 0 1.75 4.75 0.25 913 0.3996199999999999 -0.009527586450169724
X 3 9 1 1.75 4.75 0.75 914 0.37076 0.2051570968786675
X 3 9 2 1.75 4.75 1.25 915 0.38076 0.1976110962410084
X 3 9 3 1.75 4.75 1.75 916 0.4137999999999999 -0.05855820374490234
X 3 9 4 1.75 4.75 2.25 917 0.47456 -0.5031194395668238
X 3 9 5 1.75 4.75 2.75 918 0.52934 -1.005259697831084
X 3 9 6 1.75 4.75 3.25 919 0.5746800000000001 -1.343345819033384
X 3 9 7 1.75 4.75 3.75 920 0.58388 -1.556830183848468
X 3 9 8 1.75 4.75 4.25 921 0.61836 -1.762602919146065
X 3 9 9 1.75 4.75 4.75 922 0.6311599999999999 -1.99576190619238
X 3 9 10 1.75 4.75 5.25 923 0.65676 -2.15280592733923
X 3 9 11 1.75 4.75 5.75 924 0.64544 -2.119920951847872
X 3 9 12 1.75 4.75 6.25 925 0.58654 -1.838895383819849
X 3 9 13 1.75 4.75 6.75 926 0.5526399999999999 -1.393024966806351
X 3 9 14 1.75 4.75 7.25 927 0.51142 -0.8814327056571399
X 3 9 15 1.75 4.75 7.75 928 0.45158 -0.3943437713063609
X 3 10 0 1.75 5.25 0.25 929 0.3285600000000001 0.3800344528616314
X 3 10 1 1.75 5.25 0.75 930 0.32314 0.4939725543057583
X 3 10 2 1.75 5.25 1.25 931 0.33814 0.4252577332435344
X 3 10 3 1.75 5.25 1.75 932 0.3769 0.08827592475031977
X 3 10 4 1.75 5.25 2.25 933 0.44512 -0.361837191057145
X 3 10 5 1.75 5.25 2.75 934 0.51674 -0.8241460530277384
X 3 10 6 1.75 5.25 3.25 935 0.54 -1.128918570233824
X 3 10 7 1.75 5.25 3.75 936 0.57528 -1.273170095665047
X 3 10 8 1.75 5.25 4.25 937 0.59626 -1.392037439876815
X 3 10 9 1.75 5.25 4.75 938 0.5866 -1.502002047669143
X 3 10 10 1.75 5.25 5.25 939 0.59692 -1.535759500178831
X 3 10 11 1.75 5.25 5.75 940 0.5656999999999999 -1.397854135242996
X 3 10 12 1.75 5.25 6.25 941 0.52322 -1.058101445635744
X 3 10 13 1.75 5.25 6.75 942 0.48774 -0.6426556977652872
X 3 10 14 1.75 5.25 7.25 943 0.4289200000000001 -0.2434739931148802
X 3 10 15 1.75 5.25 7.75 944 0.37272 0.1097879401982034
X 3 11 0 1.75 5.75 0.25 945 0.27082 0.7407808989476515
X 3 11 1 1.75 5.75 0.75 946 0.27306 0.7828284840366507
X 3 11 2 1.75 5.75 1.25 947 0.29232 0.6556367527314635
X 3 11 3 1.75 5.75 1.75 948 0.33804 0.2861814628318807
X 3 11 4 1.75 5.75 2.25 949 0.40672 -0.1257190310669929
X 3 11 5 1.75 5.75 2.75 950 0.45928 -0.4819194379957583
X 3 11 6 1.75 5.75 3.25 951 0.5008 -0.7614984917957882
X 3 11 7 1.75 5.75 3.75 952 0.54766 -0.890806375537526
X 3 11 8 1.75 5.75 4.25 953 0.54218 -0.9754736560922218
X 3 11 9 1.75 5.75 4.75 954 0.5385800000000001 -1.01024480868032
X 3 11 10 1.75 5.75 5.25 955 0.54372 -0.949003110682615
X 3 11 11 1.75 5.75 5.75 956 0.4871799999999999 -0.6951921903189593
X 3 11 12 1.75 5.75 6.25 957 0.4400399999999999 -0.2595228288038386
X 3 11 13 1.75 5.75 6.75 958 0.37744 0.1459053806575775
X 3 11 14 1.75 5.75 7.25 959 0.32678 0.417723198334303
X 3 11 15 1.75 5.75 7.75 960 0.29704 0.6050377918840195
X 3 12 0 1.75 6.25 0.25 961 0.22442 1.032969195128738
X 3 12 1 1.75 6.25 0.75 962 0.22628 1.013854115569421
X 3 12 2 1.75 6.25 1.25 963 0.26968 0.8006072282571559
X 3 12 3 1.75 6.25 1.75 964 0.30992 0.455418213689375
X 3 12 4 1.75 6.25 2.25 965 0.37404 0.1031721493111216
X 3 12 5 1.75 6.25 2.75 966 0.42308 -0.1518864002996908
X 3 12 6 1.75 6.25 3.25 967 0.45036 -0.3616890055129475
X 3 12 7 1.75 6.25 3.75 968 0.48322 -0.5195461388317821
X 3 12 8 1.75 6.25 4.25 969 0.4988000000000001 -0.5948644010768834
X 3 12 9 1.75 6.25 4.75 970 0.49022 -0.5828872528876099
X 3 12 10 1.75 6.25 5.25 971 0.47676 -0.4506106756986253
X 3 12 11 1.75 6.25 5.75 972 0.43084 -0.1152996644874419
X 3 12 12 1.75 6.25 6.25 973 0.34386 0.3791691072965221
X 3 12 13 1.75 6.25 6.75 974 0.28068 0.7680060718802419
X 3 12 14 1.75 6.25 7.25 975 0.25016 0.9289422245857477
X 3 12 15 1.75 6.25 7.75 976 0.232 0.9884027561242854
X 3 13 0 1.75 6.75 0.25 977 0.20112 1.199010988171003
X 3 13 1 1.75 6.75 0.75 978 0.21848 1.086647786603221
X 3 13 2 1.75 6.75 1.25 979 0.25664 0.8360963494979643
X 3 13 3 1.75 6.75 1.75 980 0.2977 0.5343928743110514
X 3 13 4 1.75 6.75 2.25 981 0.35408 0.2495195436079919
X 3 13 5 1.75 6.75 2.75 982 0.39738 0.04933531388084596
X 3 13 6 1.75 6.75 3.25 983 0.42666 -0.07694537280073696
X 3 13 7 1.75 6.75 3.75 984 0.4432 -0.2084802208922372
X 3 13 8 1.75 6.75 4.25 985 0.48224 -0.2920096908747995
X 3 13 9 1.75 6.75 4.75 986 0.46518 -0.2858564725400484
X 3 13 10 1.75 6.75 5.25 987 0.43108 -0.1524486425654779
X 3 13 11 1.75 6.75 5.75 988 0.39022 0.1721871563784749
X 3 13 12 1.75 6.75 6.25 989 0.30816 0.624680499345848
X 3 13 13 1.75 6.75 6.75 990 0.24982 0.9945305524547914
X 3 13 14 1.75 6.75 7.25 991 0.22276 1.152848569053327
X 3 13 15 1.75 6.75 7.75 992 0.19944 1.194234128305486
X 3 14 0 1.75 7.25 0.25 993 0.19878 1.153738016021819
X 3 14 1 1.75 7.25 0.75 994 0.2256 0.9993460602443522
X 3 14 2 1.75 7.25 1.25 995 0.26568 0.7766856898062692
X 3 14 3 1.75 7.25 1.75 996 0.2962 0.5284192975331949
X 3 14 4 1.75 7.25 2.25 997 0.34648 0.3081548683752863
X 3 14 5 1.75 7.25 2.75 998 0.37226 0.136209826289608
X 3 14 6 1.75 7.25 3.25 999 0.41356 0.01442357353973205
X 3 14 7 1.75 7.25 3.75 1000 0.44336 -0.07257087283292671
X 3 14 8 1.75 7.25 4.25 1001 0.4381 -0.138110426682738
X 3 14 9 1.75 7.25 4.75 1002 0.45586 -0.1524630874297754
X 3 14 10 1.75 7.25 5.25 1003 0.4228600000000001 -0.05831824648159101
X 3 14 11 1.75 7.25 5.75 1004 0.38278 0.1904514078917512
X 3 14 12 1.75 7.25 6.25 1005 0.32858 0.5421009723979163
X 3 14 13 1.75 7.25 6.75 1006 0.26466 0.864589392484637
X 3 14 14 1.75 7.25 7.25 1007 0.2378 1.076571387911035
X 3 14 15 1.75 7.25 7.75 1008 0.20334 1.181897377410168
X 3 15 0 1.75 7.75 0.25 1009 0.23614 0.9369809873295771
X 3 15 1 1.75 7.75 0.75 1010 0.26042 0.8479492860048794
X 3 15 2 1.75 7.75 1.25 1011 0.27712 0.6720370230663932
X 3 15 3 1.75 7.75 1.75 1012 0.31894 0.4776017377670282
X 3 15 4 1.75 7.75 2.25 1013 0.34826 0.2939399562026148
X 3 15 5 1.75 7.75 2.75 1014 0.38482 0.1380994981890328
X 3 15 6 1.75 7.75 3.25 1015 0.42158 -0.01732258051496986
X 3 15 7 1.75 7.75 3.75 1016 0.4519799999999999 -0.1447743343521534
X 3 15 8 1.75 7.75 4.25 1017 0.45856 -0.2309577298913898
X 3 15 9 1.75 7.75 4.75 1018 0.4669 -0.2466899637242366
X 3 15 10 1.75 7.75 5.25 1019 0.44678 -0.1906480752815215
X 3 15 11 1.75 7.75 5.75 1020 0.40834 -0.01478351153576428
X 3 15 12 1.75 7.75 6.25 1021 0.37532 0.2645415044710491
X 3 15 13 1.75 7.75 6.75 1022 0.31442 0.5624721286172852
X 3 15 14 1.75 7.75 7.25 1023 0.27534 0.7914668160510432
X 3 15 15 1.75 7.75 7.75 1024 0.25012 0.9160075383572058
X 4 0 0 2.25 0.25 0.25 1025 0.3372 0.4330732833170341
X 4 0 1 2.25 0.25 0.75 1026 0.33472 0.457465198540478
X 4 0 2 2.25 0.25 1.25 1027 0.34188 0.3893788152339368
X 4 0 3 2.25 0.25 1.75 1028 0.36216 0.2685033859083568
X 4 0 4 2.25 0.25 2.25 1029 0.39042 0.1490239847010766
X 4 0 5 2.25 0.25 2.75 1030 0.41976 -0.002116445154523429
X 4 0 6 2.25 0.25 3.25 1031 0.44758 -0.1769933272495473
X 4 0 7 2.25 0.25 3.75 1032 0.47526 -0.3663914599631715
X 4 0 8 2.25 0.25 4.25 1033 0.5133800000000001 -0.6041234813823311
X 4 0 9 2.25 0.25 4.75 1034 0.52964 -0.8214033460037148
X 4 0 10 2.25 0.25 5.25 1035 0.5332 -0.9254786428155934
X 4 0 11 2.25 0.25 5.75 1036 0.51812 -0.8590912499044833
X 4 0 12 2.25 0.25 6.25 1037 0.47044 -0.6139465503814184
X 4 0 13 2.25 0.25 6.75 1038 0.43942 -0.2686644852107353
X 4 0 14 2.25 0.25 7.25 1039 0.39426 0.06081050039419243
X 4 0 15 2.25 0.25 7.75 1040 0.357 0.3007155747551731
X 4 1 0 2.25 0.75 0.25 1041 0.39428 0.1556197482243986
X 4 1 1 2.25 0.75 0.75 1042 0.37386 0.2621611827884069
X 4 1 2 2.25 0.75 1.25 1043 0.37926 0.261259376507695
X 4 1 3 2.25 0.75 1.75 1044 0.3738400000000001 0.1819030553861025
X 4 1 4 2.25 0.75 2.25 1045 0.41058 0.06777126279780059
X 4 1 5 2.25 0.75 2.75 1046 0.43738 -0.107406036503695
X 4 1 6 2.25 0.75 3.25 1047 0.4632599999999999 -0.3253141410569567
X 4 1 7 2.25 0.75 3.75 1048 0.5189 -0.6348674736230281
X 4 1 8 2.25 0.75 4.25 1049 0.5617800000000001 -1.080345395921314
X 4 1 9 2.25 0.75 4.75 1050 0.62086 -1.563727553462306
X 4 1 10 2.25 0.75 5.25 1051 0.61382 -1.871240697468532
X 4 1 11 2.25 0.75 5.75 1052 0.6128600000000001 -1.902129246602227
X 4 1 12 2.25 0.75 6.25 1053 0.60134 -1.638233451516506
X 4 1 13 2.25 0.75 6.75 1054 0.55552 -1.159600649645826
X 4 1 14 2.25 0.75 7.25 1055 0.47654 -0.6091910305034097
X 4 1 15 2.25 0.75 7.75 1056 0.42094 -0.1324178584717103
X 4 2 0 2.25 1.25 0.25 1057 0.4516399999999999 -0.2104153438741405
X 4 2 1 2.25 1.25 0.75 1058 0.40582 0.06212084964507717
X 4 2 2 2.25 1.25 1.25 1059 0.403 0.1258497318564695
X 4 2 3 2.25 1.25 1.75 1060 0.39712 0.09534975628680677
X 4 2 4 2.25 1.25 2.25 1061 0.42686 -0.02431784899913522
X 4 2 5 2.25 1.25 2.75 1062 0.4666399999999999 -0.2075469572073912
X 4 2 6 2.25 1.25 3.25 1063 0.49164 -0.5036803920924623
X 4 2 7 2.25 1.25 3.75 1064 0.55482 -1.051711294850242
X 4 2 8 2.25 1.25 4.25 1065 0.6202599999999999 -1.758149044222009
X 4 2 9 2.25 1.25 4.75 1066 0.6751 -2.467711715621089
X 4 2 10 2.25 1.25 5.25 1067 0.6831199999999999 -2.975798389465601
X 4 2 11 2.25 1.25 5.75 1068 0.7060999999999999 -3.08795059620034
X 4 2 12 2.25 1.25 6.25 1069 0.67874 -2.780577232219356
X 4 2 13 2.25 1.25 6.75 1070 0.63756 -2.157613536416092
X 4 2 14 2.25 1.25 7.25 1071 0.56464 -1.410955126898132
X 4 2 15 2.25 1.25 7.75 1072 0.5158 -0.7256823317713462
X 4 3 0 2.25 1.75 0.25 1073 0.49856 -0.6327503713385694
X 4 3 1 2.25 1.75 0.75 1074 0.44806 -0.1842804716308681
X 4 3 2 2.25 1.75 1.25 1075 0.4312199999999999 0.009700384366591432
X 4 3 3 2.25 1.75 1.75 1076 0.4307 0.01603395040512666
X 4 3 4 2.25 1.75 2.25 1077 0.4480399999999999 -0.08886979164172343
X 4 3 5 2.25 1.75 2.75 1078 0.47096 -0.2899781854491366
X 4 3 6 2.25 1.75 3.25 1079 0.5194 -0.7692106496557796
X 4 3 7 2.25 1.75 3.75 1080 0.6046999999999999 -1.504322486453914
X 4 3 8 2.25 1.75 4.25 1081 0.6635399999999999 -2.406982088302637
X 4 3 9 2.25 1.75 4.75 1082 0.71066 -3.312110589838033
X 4 3 10 2.25 1.75 5.25 1083 0.74758 -3.978019162931719
X 4 3 11 2.25 1.75 5.75 1084 0.7608200000000001 -4.181392644158778
X 4 3 12 2.25 1.75 6.25 1085 0.7352600000000001 -3.839507358650637
X 4 3 13 2.25 1.75 6.75 1086 0.69838 -3.088298711268876
X 4 3 14 2.25 1.75 7.25 1087 0.64734 -2.16697360713453
X 4 3 15 2.25 1.75 7.75 1088 0.56082 -1.303513832122296
X 4 4 0 2.25 2.25 0.25 1089 0.5429999999999999 -0.9819911836702017
X 4 4 1 2.25 2.25 0.75 1090 0.5000599999999999 -0.4393119846285082
X 4 4 2 2.25 2.25 1.25 1091 0.44846 -0.1044317810931679
X 4 4 3 2.25 2.25 1.75 1092 0.43018 -0.02594657044510531
X 4 4 4 2.25 2.25 2.25 1093 0.46998 -0.1207588600510933
X 4 4 5 2.25 2.25 2.75 1094 0.48794 -0.4185570352665246
X 4 4 6 2.25 2.25 3.25 1095 0.5608 -1.016034111726835
X 4 4 7 2.25 2.25 3.75 1096 0.6220600000000001 -1.854778605620657
X 4 4 8 2.25 2.25 4.25 1097 0.6767600000000001 -2.877367231506257
X 4 4 9 2.25 2.25 4.75 1098 0.74524 -3.900829853842017
X 4 4 10 2.25 2.25 5.25 1099 0.78228 -4.655784749828397
X 4 4 11 2.25 2.25 5.75 1100 0.7732 -4.904488973386401
X 4 4 12 2.25 2.25 6.25 1101 0.7795000000000001 -4.566999611663499
X 4 4 13 2.25 2.25 6.75 1102 0.7287800000000001 -3.758615808509546
X 4 4 14 2.25 2.25 7.25 1103 0.6677799999999999 -2.737685718575796
X 4 4 15 2.25 2.25 7.75 1104 0.6300999999999999 -1.76037553585221
X 4 5 0 2.25 2.75 0.25 1105 0.5586399999999999 -1.187194850644876
X 4 5 1 2.25 2.75 0.75 1106 0.5017 -0.5953995747970879
X 4 5 2 2.25 2.75 1.25 1107 0.4618 -0.2067744587733517
X 4 5 3 2.25 2.75 1.75 1108 0.4459 -0.05707675545460899
X 4 5 4 2.25 2.75 2.25 1109 0.47204 -0.1842037360242007
X 4 5 5 2.25 2.75 2.75 1110 0.50422 -0.5788185568954847
X 4 5 6 2.25 2.75 3.25 1111 0.57398 -1.205014809264436
X 4 5 7 2.25 2.75 3.75 1112 0.65768 -2.056079549772553
X 4 5 8 2.25 2.75 4.25 1113 0.72964 -3.081522830034262
X 4 5 9 2.25 2.75 4.75 1114 0.7642199999999999 -4.107407237851972
X 4 5 10 2.25 2.75 5.25 1115 0.7898799999999999 -4.869199110228025
X 4 5 11 2.25 2.75 5.75 1116 0.77552 -5.129010907333918
X 4 5 12 2.25 2.75 6.25 1117 0.7900200000000001 -4.804342646440138
X 4 5 13 2.25 2.75 6.75 1118 0.7202 -4.012135638295089
X 4 5 14 2.25 2.75 7.25 1119 0.6868799999999999 -2.996672263260821
X 4 5 15 2.25 2.75 7.75 1120 0.6314200000000001 -2.003500420970239
X 4 6 0 2.25 3.25 0.25 1121 0.57168 -1.245483266341307
X 4 6 1 2.25 3.25 0.75 1122 0.49864 -0.6741979061501183
X 4 6 2 2.25 3.25 1.25 1123 0.48012 -0.3032246896927056
X 4 6 3 2.25 3.25 1.75 1124 0.46408 -0.1419293950963142
X 4 6 4 2.25 3.25 2.25 1125 0.47794 -0.3204655172332192
X 4 6 5 2.25 3.25 2.75 1126 0.5331399999999999 -0.7678866352157337
X 4 6 6 2.25 3.25 3.25 1127 0.5904 -1.36730266876029
X 4 6 7 2.25 3.25 3.75 1128 0.6421399999999999 -2.131184130947808
X 4 6 8 2.25 3.25 4.25 1129 0.69968 -3.033875800560819
X 4 6 9 2.25 3.25 4.75 1130 0.74202 -3.941788326694306
X 4 6 10 2.25 3.25 5.25 1131 0.78492 -4.626351784040403
X 4 6 11 2.25 3.25 5.75 1132 0.78244 -4.871138575480129
X 4 6 12 2.25 3.25 6.25 1133 0.7816199999999999 -4.593251460898951
X 4 6 13 2.25 3.25 6.75 1134 0.7378400000000002 -3.886769886646436
X 4 6 14 2.25 3.25 7.25 1135 0.70076 -2.958806796440371
X 4 6 15 2.25 3.25 7.75 1136 0.6269400000000001 -2.026696488954408
X 4 7 0 2.25 3.75 0.25 1137 0.5539799999999999 -1.130611498491477
X 4 7 1 2.25 3.75 0.75 1138 0.50242 -0.6388928546963232
X 4 7 2 2.25 3.75 1.25 1139 0.48386 -0.3550872394587969
X 4 7 3 2.25 3.75 1.75 1140 0.4622 -0.2820397373579075
X 4 7 4 2.25 3.75 2.25 1141 0.49332 -0.5271429862624701
X 4 7 5 2.25 3.75 2.75 1142 0.55162 -1.006697145007653
X 4 7 6 2.25 3.75 3.25 1143 0.597 -1.537815663982391
X 4 7 7 2.25 3.75 3.75 1144 0.6405599999999999 -2.136915224740405
X 4 7 8 2.25 3.75 4.25 1145 0.7023600000000001 -2.821595989423171
X 4 7 9 2.25 3.75 4.75 1146 0.7356 -3.524075050625665
X 4 7 10 2.25 3.75 5.25 1147 0.75148 -4.071275281771142
X 4 7 11 2.25 3.75 5.75 1148 0.76608 -4.278692953591928
X 4 7 12 2.25 3.75 6.25 1149 0.7456199999999999 -4.057365174177609
X 4 7 13 2.25 3.75 6.75 1150 0.7113799999999999 -3.456726942431823
X 4 7 14 2.25 3.75 7.25 1151 0.6663399999999999 -2.645258411318614
X 4 7 15 2.25 3.75 7.75 1152 0.59782 -1.822852228504517
X 4 8 0 2.25 4.25 0.25 1153 0.50808 -0.8795973278760523
X 4 8 1 2.25 4.25 0.75 1154 0.47926 -0.48357351949628
X 4 8 2 2.25 4.25 1.25 1155 0.4545399999999999 -0.3130001517813743
X 4 8 3 2.25 4.25 1.75 1156 0.46232 -0.3782757742856307
X 4 8 4 2.25 4.25 2.25 1157 0.50628 -0.7357559666652517
X 4 8 5 2.25 4.25 2.75 1158 0.5583400000000001 -1.235553924576336
X 4 8 6 2.25 4.25 3.25 1159 0.6110000000000001 -1.679427381810392
X 4 8 7 2.25 4.25 3.75 1160 0.66078 -2.085562640349731
X 4 8 8 2.25 4.25 4.25 1161 0.6616 -2.523295864624478
X 4 8 9 2.25 4.25 4.75 1162 0.70602 -2.994102897395448
X 4 8 10 2.25 4.25 5.25 1163 0.7119799999999999 -3.38190549669733
X 4 8 11 2.25 4.25 5.75 1164 0.72082 -3.514787891107285
X 4 8 12 2.25 4.25 6.25 1165 0.71168 -3.306617051046165
X 4 8 13 2.25 4.25 6.75 1166 0.68636 -2.802349774939558
X 4 8 14 2.25 4.25 7.25 1167 0.6319400000000001 -2.133978443478179
X 4 8 15 2.25 4.25 7.75 1168 0.5735 -1.454558783931267
X 4 9 0 2.25 4.75 0.25 1169 0.47028 -0.5465271802566358
X 4 9 1 2.25 4.75 0.75 1170 0.43174 -0.2558947119506605
X 4 9 2 2.25 4.75 1.25 1171 0.42746 -0.1938521966861803
X 4 9 3 2.25 4.75 1.75 1172 0.45422 -0.3641137269457042
X 4 9 4 2.25 4.75 2.25 1173 0.50634 -0.7981380305810859
X 4 9 5 2.25 4.75 2.75 1174 0.56718 -1.309978449504234
X 4 9 6 2.25 4.75 3.25 1175 0.61888 -1.672387182212113
X 4 9 7 2.25 4.75 3.75 1176 0.6417800000000001 -1.918416624560541
X 4 9 8 2.25 4.75 4.25 1177 0.6485 -2.157316033010979
X 4 9 9 2.25 4.75 4.75 1178 0.6532800000000001 -2.435814182677389
X 4 9 10 2.25 4.75 5.25 1179 0.6633199999999999 -2.652722066450905
X 4 9 11 2.25 4.75 5.75 1180 0.66356 -2.661155887090856
X 4 9 12 2.25 4.75 6.25 1181 0.66184 -2.427124533918242
X 4 9 13 2.25 4.75 6.75 1182 0.63118 -1.999933716816762
X 4 9 14 2.25 4.75 7.25 1183 0.55096 -1.491243094298165
X 4 9 15 2.25 4.75 7.75 1184 0.51564 -0.9848691292992762
X 4 10 0 2.25 5.25 0.25 1185 0.39998 -0.1539971155683842
X 4 10 1 2.25 5.25 0.75 1186 0.3788400000000001 0.01286917887245445
X 4 10 2 2.25 5.25 1.25 1187 0.39984 0.008828932364136774
X 4 10 3 2.25 5.25 1.75 1188 0.42474 -0.2245071512366468
X 4 10 4 2.25 5.25 2.25 1189 0.49058 -0.6546924527214666
X 4 10 5 2.25 5.25 2.75 1190 0.5524 -1.121800693624727
X 4 10 6 2.25 5.25 3.25 1191 0.57792 -1.425537649400524
X 4 10 7 2.25 5.25 3.75 1192 0.5731000000000001 -1.583650245129319
X 4 10 8 2.25 5.25 4.25 1193 0.60112 -1.715623374918938
X 4 10 9 2.25 5.25 4.75 1194 0.6189600000000001 -1.863270508682754
X 4 10 10 2.25 5.25 5.25 1195 0.6406000000000001 -1.90166417533288
X 4 10 11 2.25 5.25 5.75 1196 0.60854 -1.729456858359356
X 4 10 12 2.25 5.25 6.25 1197 0.56312 -1.364606706632929
X 4 10 13 2.25 5.25 6.75 1198 0.5248999999999999 -0.9754973516199528
X 4 10 14 2.25 5.25 7.25 1199 0.4703399999999999 -0.6787379729665008
X 4 10 15 2.25 5.25 7.75 1200 0.4340000000000001 -0.4164473045710765
X 4 11 0 2.25 5.75 0.25 1201 0.34304 0.237022464595156
X 4 11 1 2.25 5.75 0.75 1202 0.33766 0.2981225662198013
X 4 11 2 2.25 5.75 1.25 1203 0.35042 0.2568977308419451
X 4 11 3 2.25 5.75 1.75 1204 0.40172 -0.01863259537631482
X 4 11 4 2.25 5.75 2.25 1205 0.43586 -0.3670067466551631
X 4 11 5 2.25 5.75 2.75 1206 0.5083000000000001 -0.7266586114987706
X 4 11 6 2.25 5.75 3.25 1207 0.5469000000000001 -1.002099540803872
X 4 11 7 2.25 5.75 3.75 1208 0.5524 -1.126317581598765
X 4 11 8 2.25 5.75 4.25 1209 0.57292 -1.228669444336843
X 4 11 9 2.25 5.75 4.75 1210 0.56846 -1.288040697628291
X 4 11 10 2.25 5.75 5.25 1211 0.5551999999999999 -1.161158957293025
X 4 11 11 2.25 5.75 5.75 1212 0.5072800000000001 -0.7331282625103124
X 4 11 12 2.25 5.75 6.25 1213 0.45442 -0.1348543427124518
X 4 11 13 2.25 5.75 6.75 1214 0.39094 0.247114638652127
X 4 11 14 2.25 5.75 7.25 1215 0.36612 0.2717241576223685
X 4 11 15 2.25 5.75 7.75 1216 0.35438 0.2050195139617866
X 4 12 0 2.25 6.25 0.25 1217 0.28516 0.5687820381557459
X 4 12 1 2.25 6.25 0.75 1218 0.2981200000000001 0.5513780956474597
X 4 12 2 2.25 6.25 1.25 1219 0.31812 0.4471956523254018
X 4 12 3 2.25 6.25 1.75 1220 0.37298 0.1814960986665841
X 4 12 4 2.25 6.25 2.25 1221 0.42226 -0.08251077684003871
X 4 12 5 2.25 6.25 2.75 1222 0.43984 -0.3034786184484163
X 4 12 6 2.25 6.25 3.25 1223 0.48546 -0.5433278684184017
X 4 12 7 2.25 6.25 3.75 1224 0.5146000000000001 -0.6827676777603822
X 4 12 8 2.25 6.25 4.25 1225 0.5285799999999999 -0.7798663377733726
X 4 12 9 2.25 6.25 4.75 1226 0.5103 -0.7800415011242575
X 4 12 10 2.25 6.25 5.25 1227 0.49308 -0.5396770565679129
X 4 12 11 2.25 6.25 5.75 1228 0.42418 0.07902036386914794
X 4 12 12 2.25 6.25 6.25 1229 0.32086 0.8521039420270637
X 4 12 13 2.25 6.25 6.75 1230 0.2659 1.218975410076124
X 4 12 14 2.25 6.25 7.25 1231 0.27114 1.019495182119921
X 4 12 15 2.25 6.25 7.75 1232 0.2782 0.6977951906844542
X 4 13 0 2.25 6.75 0.25 1233 0.25986 0.7750025960313152
X 4 13 1 2.25 6.75 0.75 1234 0.27716 0.7045140169555434
X 4 13 2 2.25 6.75 1.25 1235 0.3138 0.5272620714797988
X 4 13 3 2.25 6.75 1.75 1236 0.3511 0.3145882476460752
X 4 13 4 2.25 6.75 2.25 1237 0.3959 0.1123955032492248
X 4 13 5 2.25 6.75 2.75 1238 0.41584 -0.04543537818417254
X 4 13 6 2.25 6.75 3.25 1239 0.4434400000000001 -0.1806772777348546
X 4 13 7 2.25 6.75 3.75 1240 0.47816 -0.3187157835718326
X 4 13 8 2.25 6.75 4.25 1241 0.4925 -0.4361241848528293
X 4 13 9 2.25 6.75 4.75 1242 0.48554 -0.4489518792704092
X 4 13 10 2.25 6.75 5.25 1243 0.4458 -0.2259642182264767
X 4 13 11 2.25 6.75 5.75 1244 0.37762 0.3507219998653172
X 4 13 12 2.25 6.75 6.25 1245 0.28176 1.068495362112068
X 4 13 13 2.25 6.75 6.75 1246 0.24044 1.408247637080587
X 4 13 14 2.25 6.75 7.25 1247 0.2525 1.231996948920336
X 4 13 15 2.25 6.75 7.75 1248 0.25062 0.9255223939646602
X 4 14 0 2.25 7.25 0.25 1249 0.25556 0.8261947601710034
X 4 14 1 2.25 7.25 0.75 1250 0.28268 0.6956690088985286
X 4 14 2 2.25 7.25 1.25 1251 0.29702 0.5374394082617184
X 4 14 3 2.25 7.25 1.75 1252 0.33146 0.3627507315255128
X 4 14 4 2.25 7.25 2.25 1253 0.37876 0.1949549942670705
X 4 14 5 2.25 7.25 2.75 1254 0.40736 0.05981314653616834
X 4 14 6 2.25 7.25 3.25 1255 0.4335599999999999 -0.03792399709509094
X 4 14 7 2.25 7.25 3.75 1256 0.44912 -0.1216809706838049
X 4 14 8 2.25 7.25 4.25 1257 0.46576 -0.2560103965254416
X 4 14 9 2.25 7.25 4.75 1258 0.4773 -0.3127427703886442
X 4 14 10 2.25 7.25 5.25 1259 0.45032 -0.1937774663120692
X 4 14 11 2.25 7.25 5.75 1260 0.4115800000000001 0.1737889594835418
X 4 14 12 2.25 7.25 6.25 1261 0.33172 0.667012937426654
X 4 14 13 2.25 7.25 6.75 1262 0.27666 0.9730019265531868
X 4 14 14 2.25 7.25 7.25 1263 0.2671 0.9819439952568174
X 4 14 15 2.25 7.25 7.75 1264 0.25636 0.895464110221732
X 4 15 0 2.25 7.75 0.25 1265 0.28564 0.6684590283349275
X 4 15 1 2.25 7.75 0.75 1266 0.30014 0.6144594223778704
X 4 15 2 2.25 7.75 1.25 1267 0.3037599999999999 0.486537075616273
X 4 15 3 2.25 7.75 1.75 1268 0.3463000000000001 0.3374303893886436
X 4 15 4 2.25 7.75 2.25 1269 0.38784 0.1956829817261115
X 4 15 5 2.25 7.75 2.75 1270 0.39996 0.06810243488860354
X 4 15 6 2.25 7.75 3.25 1271 0.4367199999999999 -0.07033035984344985
X 4 15 7 2.25 7.75 3.75 1272 0.4664 -0.1804203876465106
X 4 15 8 2.25 7.75 4.25 1273 0.48018 -0.30388606862096
X 4 15 9 2.25 7.75 4.75 1274 0.4963399999999999 -0.3971659403063169
X 4 15 10 2.25 7.75 5.25 1275 0.4745 -0.3818261426366676
X 4 15 11 2.25 7.75 5.75 1276 0.46124 -0.2058087506522037
X 4 15 12 2.25 7.75 6.25 1277 0.40538 0.1034050696432481
X 4 15 13 2.25 7.75 6.75 1278 0.35444 0.401628964508759
X 4 15 14 2.25 7.75 7.25 1279 0.3214399999999999 0.583152690760565
X 4 15 15 2.25 7.75 7.75 1280 0.2950199999999999 0.6611077522203743
X 5 0 0 2.75 0.25 0.25 1281 0.3754 0.2208755232530644
X 5 0 1 2.75 0.25 0.75 1282 0.3705600000000001 0.2722230033196696
X 5 0 2 2.75 0.25 1.25 1283 0.3722 0.2407412225792665
X 5 0 3 2.75 0.25 1.75 1284 0.37302 0.1566114495195015
X 5 0 4 2.75 0.25 2.25 1285 0.4028600000000001 0.0708713886254432
X 5 0 5 2.75 0.25 2.75 1286 0.44858 -0.05137301665113177
X 5 0 6 2.75 0.25 3.25 1287 0.4665800000000001 -0.1877923406871155
X 5 0 7 2.75 0.25 3.75 1288 0.5032 -0.3794856290926633
X 5 0 8 2.75 0.25 4.25 1289 0.5031 -0.6289342881975108
X 5 0 9 2.75 0.25 4.75 1290 0.54748 -0.8946294842140183
X 5 0 10 2.75 0.25 5.25 1291 0.54556 -1.053508065507253
X 5 0 11 2.75 0.25 5.75 1292 0.541 -1.014040324648707
X 5 0 12 2.75 0.25 6.25 1293 0.51512 -0.7881993263093066
X 5 0 13 2.75 0.25 6.75 1294 0.46774 -0.4655133860822069
X 5 0 14 2.75 0.25 7.25 1295 0.42566 -0.149080486457825
X 5 0 15 2.75 0.25 7.75 1296 0.3971 0.08137379989395475
X 5 1 0 2.75 0.75 0.25 1297 0.4147999999999999 -0.03001120652051974
X 5 1 1 2.75 0.75 0.75 1298 0.39448 0.1122359367100279
X 5 1 2 2.75 0.75 1.25 1299 0.40374 0.1449115161573661
X 5 1 3 2.75 0.75 1.75 1300 0.39838 0.09616666015209932
X 5 1 4 2.75 0.75 2.25 1301 0.43562 0.006132694765328775
X 5 1 5 2.75 0.75 2.75 1302 0.44774 -0.1344138037233421
X 5 1 6 2.75 0.75 3.25 1303 0.4747 -0.3368109509241471
X 5 1 7 2.75 0.75 3.75 1304 0.5243 -0.6711035813490965
X 5 1 8 2.75 0.75 4.25 1305 0.5663 -1.166174277638968
X 5 1 9 2.75 0.75 4.75 1306 0.6127800000000001 -1.689010774601536
X 5 1 10 2.75 0.75 5.25 1307 0.6388999999999999 -2.063558606759943
X 5 1 11 2.75 0.75 5.75 1308 0.6463599999999999 -2.137543995246421
X 5 1 12 2.75 0.75 6.25 1309 0.6324000000000001 -1.899654073288008
X 5 1 13 2.75 0.75 6.75 1310 0.57844 -1.430573520873189
X 5 1 14 2.75 0.75 7.25 1311 0.52466 -0.8735914474223281
X 5 1 15 2.75 0.75 7.75 1312 0.46148 -0.3657383084978499
X 5 2 0 2.75 1.25 0.25 1313 0.49426 -0.4037907759938742
X 5 2 1 2.75 1.25 0.75 1314 0.42304 -0.06340717814080823
X 5 2 2 2.75 1.25 1.25 1315 0.42676 0.03982378545534307
X 5 2 3 2.75 1.25 1.75 1316 0.4170199999999999 0.03469600260389225
X 5 2 4 2.75 1.25 2.25 1317 0.43188 -0.05869877464020724
X 5 2 5 2.75 1.25 2.75 1318 0.46802 -0.2170765762519134
X 5 2 6 2.75 1.25 3.25 1319 0.50404 -0.544848257528042
X 5 2 7 2.75 1.25 3.75 1320 0.5668399999999999 -1.141022392649686
X 5 2 8 2.75 1.25 4.25 1321 0.6372 -1.888650186295492
X 5 2 9 2.75 1.25 4.75 1322 0.6646 -2.643535331357132
X 5 2 10 2.75 1.25 5.25 1323 0.70462 -3.205816995129123
X 5 2 11 2.75 1.25 5.75 1324 0.70234 -3.379905380139376
X 5 2 12 2.75 1.25 6.25 1325 0.68616 -3.095109821833702
X 5 2 13 2.75 1.25 6.75 1326 0.63812 -2.466629315622257
X 5 2 14 2.75 1.25 7.25 1327 0.59326 -1.692102896534105
X 5 2 15 2.75 1.25 7.75 1328 0.5358599999999999 -0.9654455951268839
X 5 3 0 2.75 1.75 0.25 1329 0.536 -0.8168493102978289
X 5 3 1 2.75 1.75 0.75 1330 0.47328 -0.3176304562279902
X 5 3 2 2.75 1.75 1.25 1331 0.4456600000000001 -0.05510327479460559
X 5 3 3 2.75 1.75 1.75 1332 0.44328 -0.009708966092694792
X 5 3 4 2.75 1.75 2.25 1333 0.4514 -0.09454071278538166
X 5 3 5 2.75 1.75 2.75 1334 0.4918 -0.3157540562152181
X 5 3 6 2.75 1.75 3.25 1335 0.5444200000000001 -0.8448241905168705
X 5 3 7 2.75 1.75 3.75 1336 0.6103 -1.623464974844359
X 5 3 8 2.75 1.75 4.25 1337 0.6848000000000001 -2.579460497554478
X 5 3 9 2.75 1.75 4.75 1338 0.71682 -3.543359062082377
X 5 3 10 2.75 1.75 5.25 1339 0.7549599999999999 -4.262348803225467
X 5 3 11 2.75 1.75 5.75 1340 0.77386 -4.509997669963167
X 5 3 12 2.75 1.75 6.25 1341 0.75552 -4.197880831766231
X 5 3 13 2.75 1.75 6.75 1342 0.71958 -3.433682461967955
X 5 3 14 2.75 1.75 7.25 1343 0.6604000000000001 -2.46724928888026
X 5 3 15 2.75 1.75 7.75 1344 0.6024999999999999 -1.545612818882577
X 5 4 0 2.75 2.25 0.25 1345 0.5515 -1.149410288904875
X 5 4 1 2.75 2.25 0.75 1346 0.50268 -0.5467000312263953
X 5 4 2 2.75 2.25 1.25 1347 0.4596 -0.1531462208326954
X 5 4 3 2.75 2.25 1.75 1348 0.44778 -0.02713995937187589
X 5 4 4 2.75 2.25 2.25 1349 0.4713 -0.1262993403530662
X 5 4 5 2.75 2.25 2.75 1350 0.5122599999999999 -0.4759323114810203
X 5 4 6 2.75 2.25 3.25 1351 0.56408 -1.10864268489931
X 5 4 7 2.75 2.25 3.75 1352 0.6423200000000001 -1.999047150780099
X 5 4 8 2.75 2.25 4.25 1353 0.7015800000000001 -3.084263031699533
X 5 4 9 2.75 2.25 4.75 1354 0.76212 -4.175726564431162
X 5 4 10 2.75 2.25 5.25 1355 0.79392 -4.991218666415405
X 5 4 11 2.75 2.25 5.75 1356 0.79716 -5.277015372740454
X 5 4 12 2.75 2.25 6.25 1357 0.7775599999999999 -4.942745695541637
X 5 4 13 2.75 2.25 6.75 1358 0.77406 -4.110269833429891
X 5 4 14 2.75 2.25 7.25 1359 0.69486 -3.038391275850247
X 5 4 15 2.75 2.25 7.75 1360 0.6446599999999999 -1.995655021133887
X 5 5 0 2.75 2.75 0.25 1361 0.57738 -1.340843962175201
X 5 5 1 2.75 2.75 0.75 1362 0.5053800000000001 -0.6947209986121246
X 5 5 2 2.75 2.75 1.25 1363 0.4717 -0.2660322202263253
X 5 5 3 2.75 2.75 1.75 1364 0.44996 -0.06228641734020947
X 5 5 4 2.75 2.75 2.25 1365 0.4749 -0.20429581998252
X 5 5 5 2.75 2.75 2.75 1366 0.52464 -0.6414388391734316
X 5 5 6 2.75 2.75 3.25 1367 0.5803600000000001 -1.30680030007442
X 5 5 7 2.75 2.75 3.75 1368 0.65108 -2.215015943635261
X 5 5 8 2.75 2.75 4.25 1369 0.70924 -3.308349099051036
X 5 5 9 2.75 2.75 4.75 1370 0.7644 -4.405787015151122
X 5 5 10 2.75 2.75 5.25 1371 0.79252 -5.229598855472253
X 5 5 11 2.75 2.75 5.75 1372 0.81894 -5.526326045440761
X 5 5 12 2.75 2.75 6.25 1373 0.7856200000000001 -5.201994436103825
X 5 5 13 2.75 2.75 6.75 1374 0.7735 -4.372456440760887
X 5 5 14 2.75 2.75 7.25 1375 0.6969799999999999 -3.292712864604364
X 5 5 15 2.75 2.75 7.75 1376 0.6433 -2.225497727195142
X 5 6 0 2.75 3.25 0.25 1377 0.58216 -1.417596829144877
X 5 6 1 2.75 3.25 0.75 1378 0.5289199999999999 -0.7861753020608402
X 5 6 2 2.75 3.25 1.25 1379 0.49892 -0.3659299556914585
X 5 6 3 2.75 3.25 1.75 1380 0.46374 -0.1547354031955086
X 5 6 4 2.75 3.25 2.25 1381 0.48992 -0.3474794059534276
X 5 6 5 2.75 3.25 2.75 1382 0.5589000000000001 -0.8257448880894809
X 5 6 6 2.75 3.25 3.25 1383 0.597 -1.465999428292388
X 5 6 7 2.75 3.25 3.75 1384 0.64396 -2.289935130975796
X 5 6 8 2.75 3.25 4.25 1385 0.71608 -3.262921374298069
X 5 6 9 2.75 3.25 4.75 1386 0.7473 -4.241471757106427
X 5 6 10 2.75 3.25 5.25 1387 0.77022 -4.984704805045127
X 5 6 11 2.75 3.25 5.75 1388 0.7882 -5.262880095506383
X 5 6 12 2.75 3.25 6.25 1389 0.79728 -4.983994697033094
X 5 6 13 2.75 3.25 6.75 1390 0.76278 -4.242031054561969
X 5 6 14 2.75 3.25 7.25 1391 0.7245999999999999 -3.257202134895766
X 5 6 15 2.75 3.25 7.75 1392 0.66544 -2.262777278658685
X 5 7 0 2.75 3.75 0.25 1393 0.57562 -1.379997704207444
X 5 7 1 2.75 3.75 0.75 1394 0.5270199999999999 -0.8138108182961206
X 5 7 2 2.75 3.75 1.25 1395 0.49946 -0.4471249326726792
X 5 7 3 2.75 3.75 1.75 1396 0.46368 -0.2907007493327435
X 5 7 4 2.75 3.75 2.25 1397 0.503 -0.5465507964385992
X 5 7 5 2.75 3.75 2.75 1398 0.5670599999999999 -1.047791249282559
X 5 7 6 2.75 3.75 3.25 1399 0.60612 -1.619826321799133
X 5 7 7 2.75 3.75 3.75 1400 0.6556799999999999 -2.279683371503879
X 5 7 8 2.75 3.75 4.25 1401 0.7039599999999999 -3.036337357193445
X 5 7 9 2.75 3.75 4.75 1402 0.7457 -3.806663284254248
X 5 7 10 2.75 3.75 5.25 1403 0.7598 -4.406750839257369
X 5 7 11 2.75 3.75 5.75 1404 0.7828999999999999 -4.642114287319281
X 5 7 12 2.75 3.75 6.25 1405 0.7751400000000001 -4.424936908670393
X 5 7 13 2.75 3.75 6.75 1406 0.7373599999999998 -3.817243044629765
X 5 7 14 2.75 3.75 7.25 1407 0.6828000000000001 -2.988031368253191
X 5 7 15 2.75 3.75 7.75 1408 0.63686 -2.12799694968901
X 5 8 0 2.75 4.25 0.25 1409 0.5608599999999999 -1.190614244302423
X 5 8 1 2.75 4.25 0.75 1410 0.50796 -0.7280010568658719
X 5 8 2 2.75 4.25 1.25 1411 0.4861599999999999 -0.4704804231354011
X 5 8 3 2.75 4.25 1.75 1412 0.47678 -0.4236240053054278
X 5 8 4 2.75 4.25 2.25 1413 0.52212 -0.7418086400039191
X 5 8 5 2.75 4.25 2.75 1414 0.5729599999999999 -1.253081489987359
X 5 8 6 2.75 4.25 3.25 1415 0.62266 -1.736548262804651
X 5 8 7 2.75 4.25 3.75 1416 0.647 -2.203106246051858
X 5 8 8 2.75 4.25 4.25 1417 0.67126 -2.711864291432905
X 5 8 9 2.75 4.25 4.75 1418 0.72056 -3.247264201951377
X 5 8 10 2.75 4.25 5.25 1419 0.7390199999999999 -3.680555508181879
X 5 8 11 2.75 4.25 5.75 1420 0.7324400000000001 -3.85010591846178
X 5 8 12 2.75 4.25 6.25 1421 0.72258 -3.664897274471451
X 5 8 13 2.75 4.25 6.75 1422 0.69914 -3.172658250573391
X 5 8 14 2.75 4.25 7.25 1423 0.6648400000000001 -2.511759998406282
X 5 8 15 2.75 4.25 7.75 1424 0.62038 -1.812866867552755
X 5 9 0 2.75 4.75 0.25 1425 0.52434 -0.8876230482433487
X 5 9 1 2.75 4.75 0.75 1426 0.4825800000000001 -0.5417151820974683
X 5 9 2 2.75 4.75 1.25 1427 0.46036 -0.3967954366451876
X 5 9 3 2.75 4.75 1.75 1428 0.46656 -0.4438088768159345
X 5 9 4 2.75 4.75 2.25 1429 0.5187599999999999 -0.8241830525313076
X 5 9 5 2.75 4.75 2.75 1430 0.57426 -1.312735650642239
X 5 9 6 2.75 4.75 3.25 1431 0.60376 -1.707870413046854
X 5 9 7 2.75 4.75 3.75 1432 0.64716 -2.012247748455327
X 5 9 8 2.75 4.75 4.25 1433 0.6501400000000001 -2.316273335560861
X 5 9 9 2.75 4.75 4.75 1434 0.68224 -2.650084686866168
X 5 9 10 2.75 4.75 5.25 1435 0.70048 -2.914618732574664
X 5 9 11 2.75 4.75 5.75 1436 0.68408 -2.944189054861599
X 5 9 12 2.75 4.75 6.25 1437 0.65984 -2.701188976697118
X 5 9 13 2.75 4.75 6.75 1438 0.6635599999999999 -2.301978495723894
X 5 9 14 2.75 4.75 7.25 1439 0.6095200000000001 -1.843801606764041
X 5 9 15 2.75 4.75 7.75 1440 0.56072 -1.352342945789929
X 5 10 0 2.75 5.25 0.25 1441 0.4677200000000001 -0.5068263829727551
X 5 10 1 2.75 5.25 0.75 1442 0.4268 -0.3027068913155398
X 5 10 2 2.75 5.25 1.25 1443 0.43922 -0.226726411982592
X 5 10 3 2.75 5.25 1.75 1444 0.45134 -0.3281925608682404
X 5 10 4 2.75 5.25 2.25 1445 0.50264 -0.692171051625643
X 5 10 5 2.75 5.25 2.75 1446 0.55306 -1.144123337048086
X 5 10 6 2.75 5.25 3.25 1447 0.5874200000000001 -1.45184495548452
X 5 10 7 2.75 5.25 3.75 1448 0.60998 -1.661330732744368
X 5 10 8 2.75 5.25 4.25 1449 0.6423 -1.848385523890139
X 5 10 9 2.75 5.25 4.75 1450 0.63424 -2.03972484773958
X 5 10 10 2.75 5.25 5.25 1451 0.6458999999999999 -2.099064819546241
X 5 10 11 2.75 5.25 5.75 1452 0.62748 -1.852039652063309
X 5 10 12 2.75 5.25 6.25 1453 0.57662 -1.394567132408176
X 5 10 13 2.75 5.25 6.75 1454 0.5398200000000001 -1.033221342975765
X 5 10 14 2.75 5.25 7.25 1455 0.51432 -0.8787843878100274
X 5 10 15 2.75 5.25 7.75 1456 0.48758 -0.736046593691001
X 5 11 0 2.75 5.75 0.25 1457 0.4212 -0.104062564094468
X 5 11 1 2.75 5.75 0.75 1458 0.3881 -0.03373120146829626
X 5 11 2 2.75 5.75 1.25 1459 0.39356 0.007420692627539947
X 5 11 3 2.75 5.75 1.75 1460 0.4335800000000001 -0.1339629130611086
X 5 11 4 2.75 5.75 2.25 1461 0.4598 -0.4186527813889999
X 5 11 5 2.75 5.75 2.75 1462 0.49696 -0.7791399590507481
X 5 11 6 2.75 5.75 3.25 1463 0.55276 -1.036195461063005
X 5 11 7 2.75 5.75 3.75 1464 0.57514 -1.194457171552826
X 5 11 8 2.75 5.75 4.25 1465 0.58046 -1.336847939952219
X 5 11 9 2.75 5.75 4.75 1466 0.61034 -1.431143530261801
X 5 11 10 2.75 5.75 5.25 1467 0.58268 -1.24666977607464
X 5 11 11 2.75 5.75 5.75 1468 0.51468 -0.5992514383592601
X 5 11 12 2.75 5.75 6.25 1469 0.4064 0.2470218634014958
X 5 11 13 2.75 5.75 6.75 1470 0.35994 0.6226409483655772
X 5 11 14 2.75 5.75 7.25 1471 0.3785 0.3553990641008871
X 5 11 15 2.75 5.75 7.75 1472 0.40976 -0.007665335581337834
X 5 12 0 2.75 6.25 0.25 1473 0.34444 0.2577445239548869
X 5 12 1 2.75 6.25 0.75 1474 0.35298 0.230437238340515
X 5 12 2 2.75 6.25 1.25 1475 0.33998 0.2249623320358314
X 5 12 3 2.75 6.25 1.75 1476 0.39778 0.04898472849881214
X 5 12 4 2.75 6.25 2.25 1477 0.4324 -0.1559759445909365
X 5 12 5 2.75 6.25 2.75 1478 0.4591 -0.3676249632718777
X 5 12 6 2.75 6.25 3.25 1479 0.51068 -0.5930916305488786
X 5 12 7 2.75 6.25 3.75 1480 0.5165 -0.7432919676735472
X 5 12 8 2.75 6.25 4.25 1481 0.53718 -0.866005479323253
X 5 12 9 2.75 6.25 4.75 1482 0.53046 -0.8902601887475541
X 5 12 10 2.75 6.25 5.25 1483 0.49972 -0.5321615874988416
X 5 12 11 2.75 6.25 5.75 1484 0.4001800000000001 0.4110054291013233
X 5 12 12 2.75 6.25 6.25 1485 0.27186 1.548676229017752
X 5 12 13 2.75 6.25 6.75 1486 0.22238 1.933433120014976
X 5 12 14 2.75 6.25 7.25 1487 0.24554 1.342518883972564
X 5 12 15 2.75 6.25 7.75 1488 0.30936 0.5891649131358724
X 5 13 0 2.75 6.75 0.25 1489 0.31232 0.4985619378085904
X 5 13 1 2.75 6.75 0.75 1490 0.31458 0.4305280308904976
X 5 13 2 2.75 6.75 1.25 1491 0.33042 0.3262139072233338
X 5 13 3 2.75 6.75 1.75 1492 0.3752 0.171454719972216
X 5 13 4 2.75 6.75 2.25 1493 0.4003 0.01861997723960651
X 5 13 5 2.75 6.75 2.75 1494 0.45124 -0.1002244775659691
X 5 13 6 2.75 6.75 3.25 1495 0.45932 -0.2287579493953308
X 5 13 7 2.75 6.75 3.75 1496 0.46744 -0.36989201746449
X 5 13 8 2.75 6.75 4.25 1497 0.49386 -0.5064606021369286
X 5 13 9 2.75 6.75 4.75 1498 0.4938 -0.5428495456480474
X 5 13 10 2.75 6.75 5.25 1499 0.4639800000000001 -0.2153540604520472
X 5 13 11 2.75 6.75 5.75 1500 0.38218 0.6452730700167575
X 5 13 12 2.75 6.75 6.25 1501 0.2419 1.680014612770264
X 5 13 13 2.75 6.75 6.75 1502 0.19474 2.039017913282521
X 5 13 14 2.75 6.75 7.25 1503 0.23016 1.51923504478945
X 5 13 15 2.75 6.75 7.75 1504 0.27852 0.831310556350966
X 5 14 0 2.75 7.25 0.25 1505 0.3097 0.5815314327774278
X 5 14 1 2.75 7.25 0.75 1506 0.3133 0.465368377810146
X 5 14 2 2.75 7.25 1.25 1507 0.34148 0.3436184442888527
X 5 14 3 2.75 7.25 1.75 1508 0.37124 0.2170560479161205
X 5 14 4 2.75 7.25 2.25 1509 0.39784 0.09573649858729236
X 5 14 5 2.75 7.25 2.75 1510 0.40952 -0.001355732076377393
X 5 14 6 2.75 7.25 3.25 1511 0.43998 -0.05843167192044501
X 5 14 7 2.75 7.25 3.75 1512 0.46336 -0.1529441602450878
X 5 14 8 2.75 7.25 4.25 1513 0.481 -0.31227292312732
X 5 14 9 2.75 7.25 4.75 1514 0.48926 -0.4044091324044657
X 5 14 10 2.75 7.25 5.25 1515 0.4622000000000001 -0.2452188415950526
X 5 14 11 2.75 7.25 5.75 1516 0.40432 0.2621120016302669
X 5 14 12 2.75 7.25 6.25 1517 0.31846 0.913827758783011
X 5 14 13 2.75 7.25 6.75 1518 0.2743 1.214350914214017
X 5 14 14 2.75 7.25 7.25 1519 0.26814 1.024723737034582
X 5 14 15 2.75 7.25 7.75 1520 0.29308 0.7264467319898193
X 5 15 0 2.75 7.75 0.25 1521 0.3404 0.4369571338397211
X 5 15 1 2.75 7.75 0.75 1522 0.33622 0.4002802401498088
X 5 15 2 2.75 7.75 1.25 1523 0.35868 0.3093428864595524
X 5 15 3 2.75 7.75 1.75 1524 0.37942 0.2036944348631321
X 5 15 4 2.75 7.75 2.25 1525 0.39378 0.1034070418306838
X 5 15 5 2.75 7.75 2.75 1526 0.42504 0.008402236616893443
X 5 15 6 2.75 7.75 3.25 1527 0.4513 -0.0875690846718149
X 5 15 7 2.75 7.75 3.75 1528 0.47062 -0.1862639405925811
X 5 15 8 2.75 7.75 4.25 1529 0.4790399999999999 -0.3248787683797399
X 5 15 9 2.75 7.75 4.75 1530 0.50244 -0.4752584796480217
X 5 15 10 2.75 7.75 5.25 1531 0.50056 -0.4888585477331938
X 5 15 11 2.75 7.75 5.75 1532 0.46728 -0.2919226160331021
X 5 15 12 2.75 7.75 6.25 1533 0.41198 0.04801359024489545
X 5 15 13 2.75 7.75 6.75 1534 0.37756 0.3273636441393095
X 5 15 14 2.75 7.75 7.25 1535 0.35578 0.4396108409371827
X 5 15 15 2.75 7.75 7.75 1536 0.32154 0.4532917770945126
X 6 0 0 3.25 0.25 0.25 1537 0.39906 0.07220013107452271
X 6 0 1 3.25 0.25 0.75 1538 0.39604 0.1313536086485987
X 6 0 2 3.25 0.25 1.25 1539 0.3874799999999999 0.1182505655008674
X 6 0 3 3.25 0.25 1.75 1540 0.3936 0.06341741261607714
X 6 0 4 3.25 0.25 2.25 1541 0.40812 0.01156186928200318
X 6 0 5 3.25 0.25 2.75 1542 0.43428 -0.05386317344893749
X 6 0 6 3.25 0.25 3.25 1543 0.464 -0.1635084680208592
X 6 0 7 3.25 0.25 3.75 1544 0.47934 -0.3359987561205976
X 6 0 8 3.25 0.25 4.25 1545 0.50658 -0.5607444833678485
X 6 0 9 3.25 0.25 4.75 1546 0.53528 -0.8122920517490752
X 6 0 10 3.25 0.25 5.25 1547 0.54688 -0.9940711771658443
X 6 0 11 3.25 0.25 5.75 1548 0.5295799999999999 -0.9928120084500739
X 6 0 12 3.25 0.25 6.25 1549 0.5167200000000001 -0.8040692661648097
X 6 0 13 3.25 0.25 6.75 1550 0.4842000000000001 -0.5281136718733848
X 6 0 14 3.25 0.25 7.25 1551 0.4544400000000001 -0.2569907978962161
X 6 0 15 3.25 0.25 7.75 1552 0.42234 -0.05601202352787202
X 6 1 0 3.25 0.75 0.25 1553 0.4439 -0.1345601105205275
X 6 1 1 3.25 0.75 0.75 1554 0.4262 0.01146235482343071
X 6 1 2 3.25 0.75 1.25 1555 0.41134 0.05508457673547548
X 6 1 3 3.25 0.75 1.75 1556 0.42228 0.0256082219931015
X 6 1 4 3.25 0.75 2.25 1557 0.4244599999999999 -0.01937100321532714
X 6 1 5 3.25 0.75 2.75 1558 0.45884 -0.1174366441974864
X 6 1 6 3.25 0.75 3.25 1559 0.47816 -0.2979341700173689
X 6 1 7 3.25 0.75 3.75 1560 0.50712 -0.6075252026781417
X 6 1 8 3.25 0.75 4.25 1561 0.55968 -1.073196369439346
X 6 1 9 3.25 0.75 4.75 1562 0.60434 -1.561538804838638
X 6 1 10 3.25 0.75 5.25 1563 0.62918 -1.924964559926664
X 6 1 11 3.25 0.75 5.75 1564 0.6287 -2.037304319064955
X 6 1 12 3.25 0.75 6.25 1565 0.5895599999999999 -1.845482423505472
X 6 1 13 3.25 0.75 6.75 1566 0.6038 -1.432198256420654
X 6 1 14 3.25 0.75 7.25 1567 0.5323399999999999 -0.9298734708922664
X 6 1 15 3.25 0.75 7.75 1568 0.4737 -0.4600118698966162
X 6 2 0 3.25 1.25 0.25 1569 0.49754 -0.4737638846028336
X 6 2 1 3.25 1.25 0.75 1570 0.46032 -0.129303602953592
X 6 2 2 3.25 1.25 1.25 1571 0.4261199999999999 -0.01541642587880358
X 6 2 3 3.25 1.25 1.75 1572 0.43626 0.001529179277461064
X 6 2 4 3.25 1.25 2.25 1573 0.4381 -0.05131302794683301
X 6 2 5 3.25 1.25 2.75 1574 0.47414 -0.1901075202088375
X 6 2 6 3.25 1.25 3.25 1575 0.5109600000000001 -0.499957746876855
X 6 2 7 3.25 1.25 3.75 1576 0.5727 -1.059227115825466
X 6 2 8 3.25 1.25 4.25 1577 0.6190599999999999 -1.757820042083322
X 6 2 9 3.25 1.25 4.75 1578 0.67624 -2.462576693603845
X 6 2 10 3.25 1.25 5.25 1579 0.7009600000000001 -2.990158803054863
X 6 2 11 3.25 1.25 5.75 1580 0.6900999999999999 -3.17618536956324
X 6 2 12 3.25 1.25 6.25 1581 0.6880600000000001 -2.952448451920594
X 6 2 13 3.25 1.25 6.75 1582 0.6524 -2.394007100917238
X 6 2 14 3.25 1.25 7.25 1583 0.5941200000000001 -1.685069675475239
X 6 2 15 3.25 1.25 7.75 1584 0.5318000000000001 -1.008383700203036
X 6 3 0 3.25 1.75 0.25 1585 0.5334800000000001 -0.8457980924737818
X 6 3 1 3.25 1.75 0.75 1586 0.48072 -0.3507845106766885
X 6 3 2 3.25 1.75 1.25 1587 0.44936 -0.06546921019283869
X 6 3 3 3.25 1.75 1.75 1588 0.44836 -0.006518431808939656
X 6 3 4 3.25 1.75 2.25 1589 0.44806 -0.07922931451576377
X 6 3 5 3.25 1.75 2.75 1590 0.47476 -0.2902193531341261
X 6 3 6 3.25 1.75 3.25 1591 0.51548 -0.7928612155415348
X 6 3 7 3.25 1.75 3.75 1592 0.5864400000000001 -1.523470653675323
X 6 3 8 3.25 1.75 4.25 1593 0.6720200000000001 -2.419088616236749
X 6 3 9 3.25 1.75 4.75 1594 0.7004999999999999 -3.320480085465086
X 6 3 10 3.25 1.75 5.25 1595 0.7501800000000001 -3.996170816155581
X 6 3 11 3.25 1.75 5.75 1596 0.75426 -4.237219211764621
X 6 3 12 3.25 1.75 6.25 1597 0.7578799999999999 -3.967238678980896
X 6 3 13 3.25 1.75 6.75 1598 0.7343199999999999 -3.283890834355385
X 6 3 14 3.25 1.75 7.25 1599 0.6564199999999999 -2.400541952716208
X 6 3 15 3.25 1.75 7.75 1600 0.59828 -1.541124053355135
X 6 4 0 3.25 2.25 0.25 1601 0.5482399999999999 -1.133322679833606
X 6 4 1 3.25 2.25 0.75 1602 0.49074 -0.5452945917092186
X 6 4 2 3.25 2.25 1.25 1603 0.46304 -0.153629281283553
X 6 4 3 3.25 2.25 1.75 1604 0.46002 -0.01716806977189258
X 6 4 4 3.25 2.25 2.25 1605 0.47546 -0.1084295335917269
X 6 4 5 3.25 2.25 2.75 1606 0.4974 -0.4494602024306754
X 6 4 6 3.25 2.25 3.25 1607 0.56594 -1.050501159170278
X 6 4 7 3.25 2.25 3.75 1608 0.6347799999999999 -1.89143692809871
X 6 4 8 3.25 2.25 4.25 1609 0.70434 -2.913640233986895
X 6 4 9 3.25 2.25 4.75 1610 0.7544199999999999 -3.939090560561296
X 6 4 10 3.25 2.25 5.25 1611 0.76812 -4.708700240175447
X 6 4 11 3.25 2.25 5.75 1612 0.7937000000000001 -4.987816025130795
X 6 4 12 3.25 2.25 6.25 1613 0.7721600000000001 -4.689643879104973
X 6 4 13 3.25 2.25 6.75 1614 0.73822 -3.922225449140014
X 6 4 14 3.25 2.25 7.25 1615 0.6959200000000001 -2.924521972508106
X 6 4 15 3.25 2.25 7.75 1616 0.6294999999999999 -1.942358018358556
X 6 5 0 3.25 2.75 0.25 1617 0.57884 -1.328707128765766
X 6 5 1 3.25 2.75 0.75 1618 0.53194 -0.6962047850629196
X 6 5 2 3.25 2.75 1.25 1619 0.4757 -0.2673211901336399
X 6 5 3 3.25 2.75 1.75 1620 0.43894 -0.04918263074832283
X 6 5 4 3.25 2.75 2.25 1621 0.46488 -0.1783786850779807
X 6 5 5 3.25 2.75 2.75 1622 0.5123800000000001 -0.6025782604834591
X 6 5 6 3.25 2.75 3.25 1623 0.5927600000000001 -1.240476862661716
X 6 5 7 3.25 2.75 3.75 1624 0.6458199999999999 -2.107996091476163
X 6 5 8 3.25 2.75 4.25 1625 0.6856399999999999 -3.149129061107455
X 6 5 9 3.25 2.75 4.75 1626 0.7643599999999999 -4.189919096685539
X 6 5 10 3.25 2.75 5.25 1627 0.79254 -4.97338208044709
X 6 5 11 3.25 2.75 5.75 1628 0.8073199999999999 -5.264923639907979
X 6 5 12 3.25 2.75 6.25 1629 0.79504 -4.974821996746424
X 6 5 13 3.25 2.75 6.75 1630 0.7523400000000001 -4.206182214208344
X 6 5 14 3.25 2.75 7.25 1631 0.7024600000000001 -3.192830142536313
X 6 5 15 3.25 2.75 7.75 1632 0.6488200000000001 -2.179598135452503
X 6 6 0 3.25 3.25 0.25 1633 0.57738 -1.394325755704556
X 6 6 1 3.25 3.25 0.75 1634 0.53254 -0.7746310647949869
X 6 6 2 3.25 3.25 1.25 1635 0.4860200000000001 -0.3568725563673569
X 6 6 3 3.25 3.25 1.75 1636 0.46236 -0.1269801627142974
X 6 6 4 3.25 3.25 2.25 1637 0.49474 -0.2977068674706985
X 6 6 5 3.25 3.25 2.75 1638 0.5327 -0.7543410804670569
X 6 6 6 3.25 3.25 3.25 1639 0.5929800000000001 -1.376354305717062
X 6 6 7 3.25 3.25 3.75 1640 0.65042 -2.180374647620348
X 6 6 8 3.25 3.25 4.25 1641 0.6930999999999999 -3.127047305478399
X 6 6 9 3.25 3.25 4.75 1642 0.772 -4.072423613796209
X 6 6 10 3.25 3.25 5.25 1643 0.79482 -4.789523053705543
X 6 6 11 3.25 3.25 5.75 1644 0.7815000000000001 -5.066115811255504
X 6 6 12 3.25 3.25 6.25 1645 0.77968 -4.815701708406152
X 6 6 13 3.25 3.25 6.75 1646 0.7619199999999999 -4.122252914953377
X 6 6 14 3.25 3.25 7.25 1647 0.7092000000000001 -3.181976454954946
X 6 6 15 3.25 3.25 7.75 1648 0.65116 -2.218927391119092
X 6 7 0 3.25 3.75 0.25 1649 0.5602200000000001 -1.326117977266284
X 6 7 1 3.25 3.75 0.75 1650 0.5079 -0.7619866883221527
X 6 7 2 3.25 3.75 1.25 1651 0.47548 -0.3988260804349703
X 6 7 3 3.25 3.75 1.75 1652 0.4667 -0.2278125001140024
X 6 7 4 3.25 3.75 2.25 1653 0.49702 -0.4458925707753618
X 6 7 5 3.25 3.75 2.75 1654 0.53938 -0.9169639483301781
X 6 7 6 3.25 3.75 3.25 1655 0.59828 -1.482660668003486
X 6 7 7 3.25 3.75 3.75 1656 0.67274 -2.153625779639517
X 6 7 8 3.25 3.75 4.25 1657 0.6966600000000001 -2.921144805085884
X 6 7 9 3.25 3.75 4.75 1658 0.747 -3.691942083664558
X 6 7 10 3.25 3.75 5.25 1659 0.77898 -4.286776405102922
X 6 7 11 3.25 3.75 5.75 1660 0.7714599999999999 -4.52603481806107
X 6 7 12 3.25 3.75 6.25 1661 0.74592 -4.329332898463793
X 6 7 13 3.25 3.75 6.75 1662 0.7425999999999999 -3.742357712729475
X 6 7 14 3.25 3.75 7.25 1663 0.6950999999999999 -2.925130498806348
X 6 7 15 3.25 3.75 7.75 1664 0.6332800000000001 -2.07137119315133
X 6 8 0 3.25 4.25 0.25 1665 0.5518799999999999 -1.154689050747212
X 6 8 1 3.25 4.25 0.75 1666 0.49144 -0.6781065667477311
X 6 8 2 3.25 4.25 1.25 1667 0.4684 -0.3975797451549022
X 6 8 3 3.25 4.25 1.75 1668 0.46976 -0.3095414518952582
X 6 8 4 3.25 4.25 2.25 1669 0.50924 -0.5824894298360865
X 6 8 5 3.25 4.25 2.75 1670 0.5631400000000001 -1.052466742231457
X 6 8 6 3.25 4.25 3.25 1671 0.6033599999999999 -1.540835819060571
X 6 8 7 3.25 4.25 3.75 1672 0.64898 -2.050932072993026
X 6 8 8 3.25 4.25 4.25 1673 0.66886 -2.60973391804532
X 6 8 9 3.25 4.25 4.75 1674 0.7089800000000001 -3.178510948470254
X 6 8 10 3.25 4.25 5.25 1675 0.7175800000000001 -3.627448166853783
X 6 8 11 3.25 4.25 5.75 1676 0.7486999999999999 -3.807941144168157
X 6 8 12 3.25 4.25 6.25 1677 0.72302 -3.643895393818289
X 6 8 13 3.25 4.25 6.75 1678 0.7119799999999999 -3.160170751018461
X 6 8 14 3.25 4.25 7.25 1679 0.64896 -2.490362181154877
X 6 8 15 3.25 4.25 7.75 1680 0.5996600000000001 -1.784062495069996
X 6 9 0 3.25 4.75 0.25 1681 0.51934 -0.879055943005482
X 6 9 1 3.25 4.75 0.75 1682 0.4748800000000001 -0.5104899582763454
X 6 9 2 3.25 4.75 1.25 1683 0.45552 -0.3320062311034253
X 6 9 3 3.25 4.75 1.75 1684 0.46318 -0.3229964612016749
X 6 9 4 3.25 4.75 2.25 1685 0.50118 -0.6350139608208489
X 6 9 5 3.25 4.75 2.75 1686 0.55406 -1.072177660949548
X 6 9 6 3.25 4.75 3.25 1687 0.5956 -1.478550675738221
X 6 9 7 3.25 4.75 3.75 1688 0.6140399999999999 -1.847212396856204
X 6 9 8 3.25 4.75 4.25 1689 0.6412599999999999 -2.227563632657909
X 6 9 9 3.25 4.75 4.75 1690 0.6946600000000001 -2.615820250897853
X 6 9 10 3.25 4.75 5.25 1691 0.6785599999999999 -2.908180831613323
X 6 9 11 3.25 4.75 5.75 1692 0.69774 -2.971828834463792
X 6 9 12 3.25 4.75 6.25 1693 0.6784600000000001 -2.749583517539718
X 6 9 13 3.25 4.75 6.75 1694 0.63848 -2.328914211469582
X 6 9 14 3.25 4.75 7.25 1695 0.58752 -1.849889302935201
X 6 9 15 3.25 4.75 7.75 1696 0.5703400000000001 -1.353455629305119
X 6 10 0 3.25 5.25 0.25 1697 0.4648600000000001 -0.5350968408102185
X 6 10 1 3.25 5.25 0.75 1698 0.4369599999999999 -0.3060735080960225
X 6 10 2 3.25 5.25 1.25 1699 0.42672 -0.1882072779405033
X 6 10 3 3.25 5.25 1.75 1700 0.4333799999999999 -0.2410281791701915
X 6 10 4 3.25 5.25 2.25 1701 0.48288 -0.5421008841306345
X 6 10 5 3.25 5.25 2.75 1702 0.528 -0.9259985337789931
X 6 10 6 3.25 5.25 3.25 1703 0.56074 -1.243308919352552
X 6 10 7 3.25 5.25 3.75 1704 0.59322 -1.517073027276098
X 6 10 8 3.25 5.25 4.25 1705 0.6288800000000001 -1.782284567045006
X 6 10 9 3.25 5.25 4.75 1706 0.63706 -2.030109287308929
X 6 10 10 3.25 5.25 5.25 1707 0.62948 -2.131926798294696
X 6 10 11 3.25 5.25 5.75 1708 0.63476 -1.922731117891373
X 6 10 12 3.25 5.25 6.25 1709 0.59518 -1.457107292716449
X 6 10 13 3.25 5.25 6.75 1710 0.54648 -1.066439577969074
X 6 10 14 3.25 5.25 7.25 1711 0.5206799999999999 -0.9034147591720003
X 6 10 15 3.25 5.25 7.75 1712 0.49804 -0.7693887783710315
X 6 11 0 3.25 5.75 0.25 1713 0.41042 -0.1735843796329325
X 6 11 1 3.25 5.75 0.75 1714 0.40146 -0.08153897548992892
X 6 11 2 3.25 5.75 1.25 1715 0.40428 -0.009298677914477263
X 6 11 3 3.25 5.75 1.75 1716 0.41344 -0.1067237073676291
X 6 11 4 3.25 5.75 2.25 1717 0.4599200000000001 -0.34491091318134
X 6 11 5 3.25 5.75 2.75 1718 0.4931 -0.6410697164721915
X 6 11 6 3.25 5.75 3.25 1719 0.5311 -0.8934763169287407
X 6 11 7 3.25 5.75 3.75 1720 0.5494 -1.101125039397673
X 6 11 8 3.25 5.75 4.25 1721 0.5896400000000001 -1.301285452285996
X 6 11 9 3.25 5.75 4.75 1722 0.60178 -1.440583160136612
X 6 11 10 3.25 5.75 5.25 1723 0.58624 -1.305495879366384
X 6 11 11 3.25 5.75 5.75 1724 0.5098200000000001 -0.6636030668860184
X 6 11 12 3.25 5.75 6.25 1725 0.41588 0.2079651485501801
X 6 11 13 3.25 5.75 6.75 1726 0.36288 0.6054583837237535
X 6 11 14 3.25 5.75 7.25 1727 0.38202 0.3251470926995781
X 6 11 15 3.25 5.75 7.75 1728 0.40494 -0.07031023265817131
X 6 12 0 3.25 6.25 0.25 1729 0.36256 0.1397025217484591
X 6 12 1 3.25 6.25 0.75 1730 0.3694799999999999 0.1232292287208652
X 6 12 2 3.25 6.25 1.25 1731 0.38808 0.1422689714257078
X 6 12 3 3.25 6.25 1.75 1732 0.39982 -0.0001995722828937417
X 6 12 4 3.25 6.25 2.25 1733 0.4321 -0.1570452885328375
X 6 12 5 3.25 6.25 2.75 1734 0.44348 -0.3164130768675292
X 6 12 6 3.25 6.25 3.25 1735 0.4960600000000001 -0.5199628603037532
X 6 12 7 3.25 6.25 3.75 1736 0.5100399999999999 -0.7014904885603476
X 6 12 8 3.25 6.25 4.25 1737 0.5373600000000001 -0.8611365363221294
X 6 12 9 3.25 6.25 4.75 1738 0.54882 -0.9180135123345212
X 6 12 10 3.25 6.25 5.25 1739 0.50086 -0.5984083775904886
X 6 12 11 3.25 6.25 5.75 1740 0.39922 0.362374498727939
X 6 12 12 3.25 6.25 6.25 1741 0.27332 1.528969453289393
X 6 12 13 3.25 6.25 6.75 1742 0.24004 1.915732924293931
X 6 12 14 3.25 6.25 7.25 1743 0.26472 1.284732658959514
X 6 12 15 3.25 6.25 7.75 1744 0.33724 0.486644010970274
X 6 13 0 3.25 6.75 0.25 1745 0.3520599999999999 0.3153415577352818
X 6 13 1 3.25 6.75 0.75 1746 0.35464 0.2612116040132659
X 6 13 2 3.25 6.75 1.25 1747 0.37342 0.1884227814769352
X 6 13 3 3.25 6.75 1.75 1748 0.39528 0.06982573998772922
X 6 13 4 3.25 6.75 2.25 1749 0.42164 -0.03373573617791394
X 6 13 5 3.25 6.75 2.75 1750 0.42664 -0.1049213832046958
X 6 13 6 3.25 6.75 3.25 1751 0.4545 -0.2057903648983434
X 6 13 7 3.25 6.75 3.75 1752 0.4893 -0.3592387108624022
X 6 13 8 3.25 6.75 4.25 1753 0.5066000000000001 -0.5096129916438625
X 6 13 9 3.25 6.75 4.75 1754 0.50258 -0.570556010246848
X 6 13 10 3.25 6.75 5.25 1755 0.46922 -0.2760365579405951
X 6 13 11 3.25 6.75 5.75 1756 0.38108 0.5976902805216332
X 6 13 12 3.25 6.75 6.25 1757 0.2545 1.649242405615888
X 6 13 13 3.25 6.75 6.75 1758 0.21828 1.98539316323892
X 6 13 14 3.25 6.75 7.25 1759 0.25432 1.405469379267274
X 6 13 15 3.25 6.75 7.75 1760 0.31832 0.6642324526662561
X 6 14 0 3.25 7.25 0.25 1761 0.32254 0.3658178510143664
X 6 14 1 3.25 7.25 0.75 1762 0.3556 0.2734900269754542
X 6 14 2 3.25 7.25 1.25 1763 0.36956 0.1837434686686267
X 6 14 3 3.25 7.25 1.75 1764 0.36524 0.1006755914834692
X 6 14 4 3.25 7.25 2.25 1765 0.41098 0.021521424032469
X 6 14 5 3.25 7.25 2.75 1766 0.4312 -0.03049499666784681
X 6 14 6 3.25 7.25 3.25 1767 0.42912 -0.04500544690706015
X 6 14 7 3.25 7.25 3.75 1768 0.45744 -0.1439463598573281
X 6 14 8 3.25 7.25 4.25 1769 0.47932 -0.3080425891436948
X 6 14 9 3.25 7.25 4.75 1770 0.47832 -0.4157461041456668
X 6 14 10 3.25 7.25 5.25 1771 0.4745199999999999 -0.2925983301428535
X 6 14 11 3.25 7.25 5.75 1772 0.4021 0.2075688707549453
X 6 14 12 3.25 7.25 6.25 1773 0.32924 0.8498995909973641
X 6 14 13 3.25 7.25 6.75 1774 0.28282 1.114014737141822
X 6 14 14 3.25 7.25 7.25 1775 0.2902 0.8650233410379714
X 6 14 15 3.25 7.25 7.75 1776 0.32278 0.5222538244447241
X 6 15 0 3.25 7.75 0.25 1777 0.36256 0.2491209538927433
X 6 15 1 3.25 7.75 0.75 1778 0.36156 0.2228309686583168
X 6 15 2 3.25 7.75 1.25 1779 0.3721 0.1617980543245598
X 6 15 3 3.25 7.75 1.75 1780 0.3934 0.0933490639320757
X 6 15 4 3.25 7.75 2.25 1781 0.40988 0.02855853175901282
X 6 15 5 3.25 7.75 2.75 1782 0.42332 -0.01524039357709216
X 6 15 6 3.25 7.75 3.25 1783 0.43638 -0.07166813194306551
X 6 15 7 3.25 7.75 3.75 1784 0.4598 -0.1608283974851951
X 6 15 8 3.25 7.75 4.25 1785 0.49214 -0.2931820654461745
X 6 15 9 3.25 7.75 4.75 1786 0.50162 -0.4450906360628362
X 6 15 10 3.25 7.75 5.25 1787 0.50998 -0.5000776375840282
X 6 15 11 3.25 7.75 5.75 1788 0.4815 -0.3276868902302085
X 6 15 12 3.25 7.75 6.25 1789 0.43004 -0.01810949065899696
X 6 15 13 3.25 7.75 6.75 1790 0.3985 0.218256697346133
X 6 15 14 3.25 7.75 7.25 1791 0.38342 0.287235137000007
X 6 15 15 3.25 7.75 7.75 1792 0.3641800000000001 0.2722960008149633
X 7 0 0 3.75 0.25 0.25 1793 0.40278 -0.01513824889125761
X 7 0 1 3.75 0.25 0.75 1794 0.3767 0.03735335280010676
X 7 0 2 3.75 0.25 1.25 1795 0.38228 0.02779330305460052
X 7 0 3 3.75 0.25 1.75 1796 0.39638 0.005063095770487848
X 7 0 4 3.75 0.25 2.25 1797 0.4208 -0.000771670701299211
X 7 0 5 3.75 0.25 2.75 1798 0.43026 -0.03132979333860146
X 7 0 6 3.75 0.25 3.25 1799 0.4527 -0.1173774834910186
X 7 0 7 3.75 0.25 3.75 1800 0.4744 -0.2528331698977089
X 7 0 8 3.75 0.25 4.25 1801 0.5012800000000001 -0.4294027226342677
X 7 0 9 3.75 0.25 4.75 1802 0.5176799999999999 -0.6252524790638615
X 7 0 10 3.75 0.25 5.25 1803 0.5242 -0.7785247386018869
X 7 0 11 3.75 0.25 5.75 1804 0.52922 -0.8094511134348535
X 7 0 12 3.75 0.25 6.25 1805 0.5044599999999999 -0.6951775950418946
X 7 0 13 3.75 0.25 6.75 1806 0.47286 -0.4911844627018054
X 7 0 14 3.75 0.25 7.25 1807 0.44596 -0.277991813712808
X 7 0 15 3.75 0.25 7.75 1808 0.41898 -0.1200339549374916
X 7 1 0 3.75 0.75 0.25 1809 0.44938 -0.1619017764034229
X 7 1 1 3.75 0.75 0.75 1810 0.4309999999999999 -0.04151362886825984
X 7 1 2 3.75 0.75 1.25 1811 0.4070199999999999 0.002111509326491582
X 7 1 3 3.75 0.75 1.75 1812 0.42522 4.585212132941878e-07
X 7 1 4 3.75 0.75 2.25 1813 0.41796 -0.009410124659507772
X 7 1 5 3.75 0.75 2.75 1814 0.44678 -0.08162523508822986
X 7 1 6 3.75 0.75 3.25 1815 0.47506 -0.2232543976576608
X 7 1 7 3.75 0.75 3.75 1816 0.4958 -0.4647245012820894
X 7 1 8 3.75 0.75 4.25 1817 0.5440200000000001 -0.8413438418120875
X 7 1 9 3.75 0.75 4.75 1818 0.5688599999999999 -1.244194396709374
X 7 1 10 3.75 0.75 5.25 1819 0.5966199999999999 -1.545845866406371
X 7 1 11 3.75 0.75 5.75 1820 0.6235200000000001 -1.652410145233105
X 7 1 12 3.75 0.75 6.25 1821 0.5945 -1.529258825002961
X 7 1 13 3.75 0.75 6.75 1822 0.56952 -1.215322644013354
X 7 1 14 3.75 0.75 7.25 1823 0.53054 -0.8129476013475286
X 7 1 15 3.75 0.75 7.75 1824 0.4827 -0.426077679336875
X 7 2 0 3.75 1.25 0.25 1825 0.4795 -0.4196392567537146
X 7 2 1 3.75 1.25 0.75 1826 0.44474 -0.1227336212779278
X 7 2 2 3.75 1.25 1.25 1827 0.42828 -0.01655884265772824
X 7 2 3 3.75 1.25 1.75 1828 0.4205 -3.257036419451177e-05
X 7 2 4 3.75 1.25 2.25 1829 0.42626 -0.0296409918754952
X 7 2 5 3.75 1.25 2.75 1830 0.4531 -0.1384965542565332
X 7 2 6 3.75 1.25 3.25 1831 0.48532 -0.3818210202183288
X 7 2 7 3.75 1.25 3.75 1832 0.54322 -0.8455259833285742
X 7 2 8 3.75 1.25 4.25 1833 0.5943799999999999 -1.424551671006719
X 7 2 9 3.75 1.25 4.75 1834 0.64274 -2.00755621366157
X 7 2 10 3.75 1.25 5.25 1835 0.6568000000000001 -2.445869162245653
X 7 2 11 3.75 1.25 5.75 1836 0.68162 -2.604900333247334
X 7 2 12 3.75 1.25 6.25 1837 0.66154 -2.435734807385409
X 7 2 13 3.75 1.25 6.75 1838 0.61644 -2.000334538747587
X 7 2 14 3.75 1.25 7.25 1839 0.58956 -1.432322290336138
X 7 2 15 3.75 1.25 7.75 1840 0.53406 -0.8751635869558088
X 7 3 0 3.75 1.75 0.25 1841 0.5304800000000001 -0.7158592235345272
X 7 3 1 3.75 1.75 0.75 1842 0.48128 -0.2831835861709426
X 7 3 2 3.75 1.75 1.25 1843 0.4227000000000001 -0.03954940666967149
X 7 3 3 3.75 1.75 1.75 1844 0.42704 -0.00116815850186156
X 7 3 4 3.75 1.75 2.25 1845 0.43684 -0.0508699975336719
X 7 3 5 3.75 1.75 2.75 1846 0.46574 -0.2147959172113128
X 7 3 6 3.75 1.75 3.25 1847 0.5146999999999999 -0.6380946507981092
X 7 3 7 3.75 1.75 3.75 1848 0.5834 -1.252237366779074
X 7 3 8 3.75 1.75 4.25 1849 0.63242 -1.998334524554177
X 7 3 9 3.75 1.75 4.75 1850 0.6742400000000001 -2.747670948266037
X 7 3 10 3.75 1.75 5.25 1851 0.7218 -3.310833521725115
X 7 3 11 3.75 1.75 5.75 1852 0.7195800000000001 -3.517614969249189
X 7 3 12 3.75 1.75 6.25 1853 0.7096800000000001 -3.304633727785096
X 7 3 13 3.75 1.75 6.75 1854 0.66432 -2.749604775858414
X 7 3 14 3.75 1.75 7.25 1855 0.63106 -2.024861152335473
X 7 3 15 3.75 1.75 7.75 1856 0.5755399999999999 -1.308747131111539
X 7 4 0 3.75 2.25 0.25 1857 0.54068 -0.975882540788692
X 7 4 1 3.75 2.25 0.75 1858 0.48208 -0.4628766057250754
X 7 4 2 3.75 2.25 1.25 1859 0.44006 -0.1138150384803171
X 7 4 3 3.75 2.25 1.75 1860 0.43444 -0.006003416774121006
X 7 4 4 3.75 2.25 2.25 1861 0.45908 -0.0691553696947183
X 7 4 5 3.75 2.25 2.75 1862 0.48244 -0.3539570764665635
X 7 4 6 3.75 2.25 3.25 1863 0.54276 -0.8713678391832149
X 7 4 7 3.75 2.25 3.75 1864 0.59876 -1.5851686874724
X 7 4 8 3.75 2.25 4.25 1865 0.67618 -2.444572176400759
X 7 4 9 3.75 2.25 4.75 1866 0.7029399999999999 -3.304008514843504
X 7 4 10 3.75 2.25 5.25 1867 0.75996 -3.950059463159193
X 7 4 11 3.75 2.25 5.75 1868 0.76176 -4.191442260556895
X 7 4 12 3.75 2.25 6.25 1869 0.739 -3.955559101904076
X 7 4 13 3.75 2.25 6.75 1870 0.7119799999999999 -3.327708892262105
X 7 4 14 3.75 2.25 7.25 1871 0.67664 -2.49999181123857
X 7 4 15 3.75 2.25 7.75 1872 0.5985200000000001 -1.671231412124696
X 7 5 0 3.75 2.75 0.25 1873 0.5735 -1.117858754710415
X 7 5 1 3.75 2.75 0.75 1874 0.52852 -0.5677735211774282
X 7 5 2 3.75 2.75 1.25 1875 0.46464 -0.199022351934268
X 7 5 3 3.75 2.75 1.75 1876 0.44674 -0.02172120050549937
X 7 5 4 3.75 2.75 2.25 1877 0.45496 -0.1188501764416646
X 7 5 5 3.75 2.75 2.75 1878 0.49826 -0.4864246193271485
X 7 5 6 3.75 2.75 3.25 1879 0.5597599999999999 -1.043271210009263
X 7 5 7 3.75 2.75 3.75 1880 0.60458 -1.792262682063783
X 7 5 8 3.75 2.75 4.25 1881 0.6840400000000001 -2.681698172041018
X 7 5 9 3.75 2.75 4.75 1882 0.72112 -3.566239863892119
X 7 5 10 3.75 2.75 5.25 1883 0.7685000000000001 -4.23266280901264
X 7 5 11 3.75 2.75 5.75 1884 0.7659 -4.48812526318222
X 7 5 12 3.75 2.75 6.25 1885 0.7455400000000001 -4.257973858806361
X 7 5 13 3.75 2.75 6.75 1886 0.7315199999999999 -3.615860505142145
X 7 5 14 3.75 2.75 7.25 1887 0.68566 -2.744450237522147
X 7 5 15 3.75 2.75 7.75 1888 0.62242 -1.862784993399366
X 7 6 0 3.75 3.25 0.25 1889 0.55372 -1.12506899034861
X 7 6 1 3.75 3.25 0.75 1890 0.4913 -0.575721986351492
X 7 6 2 3.75 3.25 1.25 1891 0.45472 -0.2123578533936936
X 7 6 3 3.75 3.25 1.75 1892 0.45714 -0.03995902164554718
X 7 6 4 3.75 3.25 2.25 1893 0.48156 -0.1942701533800178
X 7 6 5 3.75 3.25 2.75 1894 0.5089399999999999 -0.5998055517759368
X 7 6 6 3.75 3.25 3.25 1895 0.57442 -1.153271200774599
X 7 6 7 3.75 3.25 3.75 1896 0.64924 -1.867928432312646
X 7 6 8 3.75 3.25 4.25 1897 0.69052 -2.700136191803372
X 7 6 9 3.75 3.25 4.75 1898 0.7218800000000001 -3.523214609732363
X 7 6 10 3.75 3.25 5.25 1899 0.7489399999999999 -4.14675404139523
X 7 6 11 3.75 3.25 5.75 1900 0.76446 -4.394445217817566
X 7 6 12 3.75 3.25 6.25 1901 0.7566400000000001 -4.180196975367752
X 7 6 13 3.75 3.25 6.75 1902 0.7265999999999999 -3.555458442834978
X 7 6 14 3.75 3.25 7.25 1903 0.67208 -2.71441167509292
X 7 6 15 3.75 3.25 7.75 1904 0.6154200000000001 -1.858460000804399
X 7 7 0 3.75 3.75 0.25 1905 0.5563999999999999 -1.035778289915546
X 7 7 1 3.75 3.75 0.75 1906 0.48858 -0.5223136737041651
X 7 7 2 3.75 3.75 1.25 1907 0.4589200000000001 -0.1923796455923542
X 7 7 3 3.75 3.75 1.75 1908 0.44584 -0.04355331925813585
X 7 7 4 3.75 3.75 2.25 1909 0.48102 -0.2571831373636804
X 7 7 5 3.75 3.75 2.75 1910 0.51532 -0.6969480108259343
X 7 7 6 3.75 3.75 3.25 1911 0.5756599999999999 -1.213861508422684
X 7 7 7 3.75 3.75 3.75 1912 0.61632 -1.839778220105003
X 7 7 8 3.75 3.75 4.25 1913 0.6607999999999999 -2.549522497889042
X 7 7 9 3.75 3.75 4.75 1914 0.71458 -3.249078864638451
X 7 7 10 3.75 3.75 5.25 1915 0.70524 -3.78421113910214
X 7 7 11 3.75 3.75 5.75 1916 0.7487200000000001 -3.999231487375802
X 7 7 12 3.75 3.75 6.25 1917 0.74204 -3.790277799169139
X 7 7 13 3.75 3.75 6.75 1918 0.6960799999999999 -3.232090640587229
X 7 7 14 3.75 3.75 7.25 1919 0.65806 -2.485526259309321
X 7 7 15 3.75 3.75 7.75 1920 0.60394 -1.712075438736656
X 7 8 0 3.75 4.25 0.25 1921 0.52942 -0.8740046593358922
X 7 8 1 3.75 4.25 0.75 1922 0.4714 -0.4208452575265824
X 7 8 2 3.75 4.25 1.25 1923 0.4463400000000001 -0.1511751906120223
X 7 8 3 3.75 4.25 1.75 1924 0.42902 -0.04560179914306563
X 7 8 4 3.75 4.25 2.25 1925 0.46278 -0.2967115550309269
X 7 8 5 3.75 4.25 2.75 1926 0.52186 -0.7519294368723003
X 7 8 6 3.75 4.25 3.25 1927 0.5753600000000001 -1.218387534443848
X 7 8 7 3.75 4.25 3.75 1928 0.6066199999999999 -1.730145192767184
X 7 8 8 3.75 4.25 4.25 1929 0.6629200000000001 -2.290950701559666
X 7 8 9 3.75 4.25 4.75 1930 0.7032999999999999 -2.842991153143402
X 7 8 10 3.75 4.25 5.25 1931 0.69996 -3.26909832235961
X 7 8 11 3.75 4.25 5.75 1932 0.7304999999999999 -3.420310021398347
X 7 8 12 3.75 4.25 6.25 1933 0.7003999999999999 -3.218416454366031
X 7 8 13 3.75 4.25 6.75 1934 0.6938 -2.746952508270679
X 7 8 14 3.75 4.25 7.25 1935 0.6365 -2.121792529972888
X 7 8 15 3.75 4.25 7.75 1936 0.57636 -1.463735430662675
X 7 9 0 3.75 4.75 0.25 1937 0.49082 -0.6554567865901137
X 7 9 1 3.75 4.75 0.75 1938 0.44998 -0.2916788058547472
X 7 9 2 3.75 4.75 1.25 1939 0.42832 -0.08664690064380923
X 7 9 3 3.75 4.75 1.75 1940 0.42594 -0.02644550557805329
X 7 9 4 3.75 4.75 2.25 1941 0.4528800000000001 -0.2924568140986296
X 7 9 5 3.75 4.75 2.75 1942 0.51152 -0.7252776606132149
X 7 9 6 3.75 4.75 3.25 1943 0.55298 -1.132462205836686
X 7 9 7 3.75 4.75 3.75 1944 0.6033999999999999 -1.535739931287701
X 7 9 8 3.75 4.75 4.25 1945 0.6463599999999999 -1.960579115569458
X 7 9 9 3.75 4.75 4.75 1946 0.66948 -2.374229121281493
X 7 9 10 3.75 4.75 5.25 1947 0.6808599999999999 -2.680557245432184
X 7 9 11 3.75 4.75 5.75 1948 0.6889399999999999 -2.731686978795999
X 7 9 12 3.75 4.75 6.25 1949 0.6600000000000001 -2.49905504641345
X 7 9 13 3.75 4.75 6.75 1950 0.64672 -2.09993800254757
X 7 9 14 3.75 4.75 7.25 1951 0.5820000000000001 -1.625070539265239
X 7 9 15 3.75 4.75 7.75 1952 0.54454 -1.125422910197025
X 7 10 0 3.75 5.25 0.25 1953 0.4431399999999999 -0.382785395533412
X 7 10 1 3.75 5.25 0.75 1954 0.41496 -0.136810289793914
X 7 10 2 3.75 5.25 1.25 1955 0.40826 0.01226392619656992
X 7 10 3 3.75 5.25 1.75 1956 0.41412 0.0191056038569078
X 7 10 4 3.75 5.25 2.25 1957 0.4311199999999999 -0.2178553360734826
X 7 10 5 3.75 5.25 2.75 1958 0.49896 -0.6079759917659048
X 7 10 6 3.75 5.25 3.25 1959 0.54606 -0.9369343677190958
X 7 10 7 3.75 5.25 3.75 1960 0.57314 -1.251963092712569
X 7 10 8 3.75 5.25 4.25 1961 0.5957200000000001 -1.575390976195583
X 7 10 9 3.75 5.25 4.75 1962 0.6195400000000001 -1.871793800116361
X 7 10 10 3.75 5.25 5.25 1963 0.6381800000000001 -2.032062813108006
X 7 10 11 3.75 5.25 5.75 1964 0.63022 -1.899125170696898
X 7 10 12 3.75 5.25 6.25 1965 0.57644 -1.520527067801546
X 7 10 13 3.75 5.25 6.75 1966 0.5583999999999999 -1.151580381096213
X 7 10 14 3.75 5.25 7.25 1967 0.51902 -0.9019601247837999
X 7 10 15 3.75 5.25 7.75 1968 0.48904 -0.6647474983702432
X 7 11 0 3.75 5.75 0.25 1969 0.39768 -0.1063127745788044
X 7 11 1 3.75 5.75 0.75 1970 0.38558 0.03393926464951716
X 7 11 2 3.75 5.75 1.25 1971 0.38634 0.1323686994207385
X 7 11 3 3.75 5.75 1.75 1972 0.39508 0.06798236157589137
X 7 11 4 3.75 5.75 2.25 1973 0.43744 -0.1164612452167018
X 7 11 5 3.75 5.75 2.75 1974 0.46968 -0.4106464177492166
X 7 11 6 3.75 5.75 3.25 1975 0.51428 -0.6762465588183691
X 7 11 7 3.75 5.75 3.75 1976 0.54152 -0.9182170181590419
X 7 11 8 3.75 5.75 4.25 1977 0.5613 -1.162315806179155
X 7 11 9 3.75 5.75 4.75 1978 0.5819200000000001 -1.357928350571721
X 7 11 10 3.75 5.75 5.25 1979 0.5936800000000001 -1.344871859069122
X 7 11 11 3.75 5.75 5.75 1980 0.55352 -0.9363992592593557
X 7 11 12 3.75 5.75 6.25 1981 0.47162 -0.2850954741782622
X 7 11 13 3.75 5.75 6.75 1982 0.4194999999999999 0.08396875673944348
X 7 11 14 3.75 5.75 7.25 1983 0.41974 0.01138839856558498
X 7 11 15 3.75 5.75 7.75 1984 0.41752 -0.1391508874795603
X 7 12 0 3.75 6.25 0.25 1985 0.35922 0.127912591736703
X 7 12 1 3.75 6.25 0.75 1986 0.3683400000000001 0.1770923854793558
X 7 12 2 3.75 6.25 1.25 1987 0.3452 0.2150904706348975
X 7 12 3 3.75 6.25 1.75 1988 0.40026 0.08760766141088458
X 7 12 4 3.75 6.25 2.25 1989 0.42234 -0.05320298146136092
X 7 12 5 3.75 6.25 2.75 1990 0.4432599999999999 -0.1924917692888179
X 7 12 6 3.75 6.25 3.25 1991 0.48228 -0.3924778856296082
X 7 12 7 3.75 6.25 3.75 1992 0.51002 -0.5943246179141117
X 7 12 8 3.75 6.25 4.25 1993 0.54116 -0.7862168622654313
X 7 12 9 3.75 6.25 4.75 1994 0.5342600000000001 -0.8986247325911847
X 7 12 10 3.75 6.25 5.25 1995 0.52318 -0.7471177386365121
X 7 12 11 3.75 6.25 5.75 1996 0.45974 -0.1395338779749882
X 7 12 12 3.75 6.25 6.25 1997 0.35422 0.7041624213424804
X 7 12 13 3.75 6.25 6.75 1998 0.31762 1.05249679304703
X 7 12 14 3.75 6.25 7.25 1999 0.32408 0.7217842141742372
X 7 12 15 3.75 6.25 7.75 2000 0.35844 0.2791428423238439
X 7 13 0 3.75 6.75 0.25 2001 0.33546 0.2561255043530486
X 7 13 1 3.75 6.75 0.75 2002 0.34404 0.2575931382518665
X 7 13 2 3.75 6.75 1.25 2003 0.35094 0.1924243017205806
X 7 13 3 3.75 6.75 1.75 2004 0.38946 0.07234565225296348
X 7 13 4 3.75 6.75 2.25 2005 0.40804 -0.02710881371839815
X 7 13 5 3.75 6.75 2.75 2006 0.4169200000000001 -0.05960748841726899
X 7 13 6 3.75 6.75 3.25 2007 0.45596 -0.1443546279111011
X 7 13 7 3.75 6.75 3.75 2008 0.47712 -0.3033670260322824
X 7 13 8 3.75 6.75 4.25 2009 0.49652 -0.4608251196538634
X 7 13 9 3.75 6.75 4.75 2010 0.49938 -0.5536239393929734
X 7 13 10 3.75 6.75 5.25 2011 0.48838 -0.4122227416601314
X 7 13 11 3.75 6.75 5.75 2012 0.41704 0.1297549055477548
X 7 13 12 3.75 6.75 6.25 2013 0.33548 0.8658831854015155
X 7 13 13 3.75 6.75 6.75 2014 0.2863600000000001 1.170437263772663
X 7 13 14 3.75 6.75 7.25 2015 0.3117 0.8579645173478175
X 7 13 15 3.75 6.75 7.75 2016 0.34168 0.4295413470022087
X 7 14 0 3.75 7.25 0.25 2017 0.3413 0.2735211551290103
X 7 14 1 3.75 7.25 0.75 2018 0.36018 0.2035937654129486
X 7 14 2 3.75 7.25 1.25 2019 0.37074 0.1186732058637657
X 7 14 3 3.75 7.25 1.75 2020 0.39862 0.03396826452298771
X 7 14 4 3.75 7.25 2.25 2021 0.41362 -0.01246293457549991
X 7 14 5 3.75 7.25 2.75 2022 0.4286 -0.01936393763046517
X 7 14 6 3.75 7.25 3.25 2023 0.4348399999999999 -0.02195548476606732
X 7 14 7 3.75 7.25 3.75 2024 0.45 -0.1013396917423266
X 7 14 8 3.75 7.25 4.25 2025 0.4719 -0.2542742058655966
X 7 14 9 3.75 7.25 4.75 2026 0.49348 -0.3692634615471896
X 7 14 10 3.75 7.25 5.25 2027 0.47968 -0.3336771576268712
X 7 14 11 3.75 7.25 5.75 2028 0.4308799999999999 -0.04073181062891299
X 7 14 12 3.75 7.25 6.25 2029 0.39054 0.3901112485819416
X 7 14 13 3.75 7.25 6.75 2030 0.35392 0.6107984924199247
X 7 14 14 3.75 7.25 7.25 2031 0.33824 0.5114141294117656
X 7 14 15 3.75 7.25 7.75 2032 0.3409 0.3436661451698074
X 7 15 0 3.75 7.75 0.25 2033 0.38622 0.1278246357003095
X 7 15 1 3.75 7.75 0.75 2034 0.38522 0.1031917071353338
X 7 15 2 3.75 7.75 1.25 2035 0.39186 0.05705267827575151
X 7 15 3 3.75 7.75 1.75 2036 0.40986 0.01517920090802093
X 7 15 4 3.75 7.75 2.25 2037 0.4098 -0.003393215388320672
X 7 15 5 3.75 7.75 2.75 2038 0.4360599999999999 -0.007468467845363514
X 7 15 6 3.75 7.75 3.25 2039 0.4404 -0.04367047235983832
X 7 15 7 3.75 7.75 3.75 2040 0.44704 -0.1141905622965479
X 7 15 8 3.75 7.75 4.25 2041 0.48058 -0.2170009206706476
X 7 15 9 3.75 7.75 4.75 2042 0.47854 -0.3447781539167166
X 7 15 10 3.75 7.75 5.25 2043 0.49592 -0.4160430496089455
X 7 15 11 3.75 7.75 5.75 2044 0.4743000000000001 -0.3417640205951431
X 7 15 12 3.75 7.75 6.25 2045 0.45406 -0.1406882828544136
X 7 15 13 3.75 7.75 6.75 2046 0.40482 0.03673833117974348
X 7 15 14 3.75 7.75 7.25 2047 0.39216 0.1136100202780769
X 7 15 15 3.75 7.75 7.75 2048 0.3933 0.1304355976031942
X 8 0 0 4.25 0.25 0.25 2049 0.41624 -0.02795695580987597
X 8 0 1 4.25 0.25 0.75 2050 0.407 0.007225546766371692
X 8 0 2 4.25 0.25 1.25 2051 0.41082 0.002846022978292179
X 8 0 3 4.25 0.25 1.75 2052 0.39848 -3.59245730878399e-05
X 8 0 4 4.25 0.25 2.25 2053 0.41316 -0.0001303231429147624
X 8 0 5 4.25 0.25 2.75 2054 0.4210800000000001 -0.009234344813060305
X 8 0 6 4.25 0.25 3.25 2055 0.4364 -0.0647296790351671
X 8 0 7 4.25 0.25 3.75 2056 0.4716 -0.1575572190298981
X 8 0 8 4.25 0.25 4.25 2057 0.4917199999999999 -0.2786959756132509
X 8 0 9 4.25 0.25 4.75 2058 0.49516 -0.4060940142862976
X 8 0 10 4.25 0.25 5.25 2059 0.50354 -0.5130676023756887
X 8 0 11 4.25 0.25 5.75 2060 0.50134 -0.544089620146668
X 8 0 12 4.25 0.25 6.25 2061 0.47384 -0.4833762924681418
X 8 0 13 4.25 0.25 6.75 2062 0.4524 -0.3602818817854738
X 8 0 14 4.25 0.25 7.25 2063 0.43874 -0.2219849263723585
X 8 0 15 4.25 0.25 7.75 2064 0.42606 -0.1082216285854512
X 8 1 0 4.25 0.75 0.25 2065 0.41826 -0.1131548518858444
X 8 1 1 4.25 0.75 0.75 2066 0.4263799999999999 -0.02691726433271191
X 8 1 2 4.25 0.75 1.25 2067 0.4184 5.989773420826963e-06
X 8 1 3 4.25 0.75 1.75 2068 0.4100399999999999 6.765046245030178e-08
X 8 1 4 4.25 0.75 2.25 2069 0.42354 -0.001001664011313522
X 8 1 5 4.25 0.75 2.75 2070 0.43784 -0.04055767104424553
X 8 1 6 4.25 0.75 3.25 2071 0.4602 -0.1375200003501062
X 8 1 7 4.25 0.75 3.75 2072 0.4696400000000001 -0.2964919550060773
X 8 1 8 4.25 0.75 4.25 2073 0.50576 -0.5509968763431496
X 8 1 9 4.25 0.75 4.75 2074 0.5306599999999999 -0.846145600600011
X 8 1 10 4.25 0.75 5.25 2075 0.5695600000000001 -1.069748912942971
X 8 1 11 4.25 0.75 5.75 2076 0.56934 -1.151438893114863
X 8 1 12 4.25 0.75 6.25 2077 0.5357 -1.067445186611236
X 8 1 13 4.25 0.75 6.75 2078 0.52904 -0.8493434948157481
X 8 1 14 4.25 0.75 7.25 2079 0.48398 -0.5642588830320322
X 8 1 15 4.25 0.75 7.75 2080 0.45672 -0.2911921843964685
X 8 2 0 4.25 1.25 0.25 2081 0.44846 -0.2692185221081855
X 8 2 1 4.25 1.25 0.75 2082 0.42456 -0.06356704723564457
X 8 2 2 4.25 1.25 1.25 2083 0.4231400000000001 -0.003442135522507679
X 8 2 3 4.25 1.25 1.75 2084 0.43098 0
X 8 2 4 4.25 1.25 2.25 2085 0.4239599999999999 -0.008728038643834871
X 8 2 5 4.25 1.25 2.75 2086 0.44768 -0.07939064843864591
X 8 2 6 4.25 1.25 3.25 2087 0.4731400000000001 -0.2343602160556009
X 8 2 7 4.25 1.25 3.75 2088 0.5099 -0.5687930947615616
X 8 2 8 4.25 1.25 4.25 2089 0.56624 -1.001385020181207
X 8 2 9 4.25 1.25 4.75 2090 0.5885400000000001 -1.433420981108555
X 8 2 10 4.25 1.25 5.25 2091 0.62254 -1.757390155589526
X 8 2 11 4.25 1.25 5.75 2092 0.62358 -1.877795378070784
X 8 2 12 4.25 1.25 6.25 2093 0.6176200000000001 -1.759057241434722
X 8 2 13 4.25 1.25 6.75 2094 0.5913999999999999 -1.444589013283558
X 8 2 14 4.25 1.25 7.25 2095 0.5320999999999999 -1.030514275416404
X 8 2 15 4.25 1.25 7.75 2096 0.5027199999999999 -0.616674873309233
X 8 3 0 4.25 1.75 0.25 2097 0.5044999999999999 -0.5152262505440464
X 8 3 1 4.25 1.75 0.75 2098 0.44714 -0.1731255399479041
X 8 3 2 4.25 1.75 1.25 2099 0.42564 -0.01028643319880738
X 8 3 3 4.25 1.75 1.75 2100 0.43512 -0.0002627720711048966
X 8 3 4 4.25 1.75 2.25 2101 0.43286 -0.01969442260387859
X 8 3 5 4.25 1.75 2.75 2102 0.4574 -0.123209871831327
X 8 3 6 4.25 1.75 3.25 2103 0.49638 -0.4290681808963734
X 8 3 7 4.25 1.75 3.75 2104 0.54644 -0.8977523863283461
X 8 3 8 4.25 1.75 4.25 2105 0.59958 -1.458829720980507
X 8 3 9 4.25 1.75 4.75 2106 0.6288600000000001 -2.017343777586587
X 8 3 10 4.25 1.75 5.25 2107 0.6763199999999999 -2.43612122506356
X 8 3 11 4.25 1.75 5.75 2108 0.6710799999999999 -2.593283976248741
X 8 3 12 4.25 1.75 6.25 2109 0.6588000000000001 -2.443411604064804
X 8 3 13 4.25 1.75 6.75 2110 0.6219999999999999 -2.040598188634618
X 8 3 14 4.25 1.75 7.25 2111 0.59862 -1.506940518995144
X 8 3 15 4.25 1.75 7.75 2112 0.5401199999999999 -0.9701713312802922
X 8 4 0 4.25 2.25 0.25 2113 0.50544 -0.6883392055681653
X 8 4 1 4.25 2.25 0.75 2114 0.46356 -0.2870863714124728
X 8 4 2 4.25 2.25 1.25 2115 0.42448 -0.03145330316310799
X 8 4 3 4.25 2.25 1.75 2116 0.44148 0.001575773802432168
X 8 4 4 4.25 2.25 2.25 2117 0.4393 -0.02788231886565636
X 8 4 5 4.25 2.25 2.75 2118 0.47416 -0.219097151708681
X 8 4 6 4.25 2.25 3.25 2119 0.5395000000000001 -0.6274465825279965
X 8 4 7 4.25 2.25 3.75 2120 0.56684 -1.179379262509673
X 8 4 8 4.25 2.25 4.25 2121 0.64344 -1.833766772586704
X 8 4 9 4.25 2.25 4.75 2122 0.6726799999999999 -2.481713765488887
X 8 4 10 4.25 2.25 5.25 2123 0.7103200000000001 -2.96775146549636
X 8 4 11 4.25 2.25 5.75 2124 0.6874200000000001 -3.153781670357121
X 8 4 12 4.25 2.25 6.25 2125 0.71258 -2.987270808621378
X 8 4 13 4.25 2.25 6.75 2126 0.6652 -2.519129359042507
X 8 4 14 4.25 2.25 7.25 2127 0.62668 -1.880004368593636
X 8 4 15 4.25 2.25 7.75 2128 0.5676800000000001 -1.233566943364096
X 8 5 0 4.25 2.75 0.25 2129 0.52532 -0.7469341130895379
X 8 5 1 4.25 2.75 0.75 2130 0.46742 -0.3068956451100954
X 8 5 2 4.25 2.75 1.25 2131 0.4243000000000001 -0.02089615587296853
X 8 5 3 4.25 2.75 1.75 2132 0.43052 0.05358308999383312
X 8 5 4 4.25 2.75 2.25 2133 0.44624 -0.03728417943063438
X 8 5 5 4.25 2.75 2.75 2134 0.48184 -0.3303490835554024
X 8 5 6 4.25 2.75 3.25 2135 0.5293999999999999 -0.7779324681700706
X 8 5 7 4.25 2.75 3.75 2136 0.58612 -1.369449413822335
X 8 5 8 4.25 2.75 4.25 2137 0.6407999999999999 -2.060852624222496
X 8 5 9 4.25 2.75 4.75 2138 0.664 -2.740909524661845
X 8 5 10 4.25 2.75 5.25 2139 0.7116400000000001 -3.251691627762016
X 8 5 11 4.25 2.75 5.75 2140 0.7286199999999999 -3.45169490225348
X 8 5 12 4.25 2.75 6.25 2141 0.7150599999999999 -3.263451848472314
X 8 5 13 4.25 2.75 6.75 2142 0.69258 -2.735404773293138
X 8 5 14 4.25 2.75 7.25 2143 0.6296200000000001 -2.04075525952094
X 8 5 15 4.25 2.75 7.75 2144 0.5714 -1.340733040393354
X 8 6 0 4.25 3.25 0.25 2145 0.51248 -0.7134861049263842
X 8 6 1 4.25 3.25 0.75 2146 0.45962 -0.2654048519314016
X 8 6 2 4.25 3.25 1.25 2147 0.4216 0.0200018117769357
X 8 6 3 4.25 3.25 1.75 2148 0.4184599999999999 0.1234363908886178
X 8 6 4 4.25 3.25 2.25 2149 0.43738 -0.02156029667884829
X 8 6 5 4.25 3.25 2.75 2150 0.48984 -0.4063167536351572
X 8 6 6 4.25 3.25 3.25 2151 0.54676 -0.8705808633012588
X 8 6 7 4.25 3.25 3.75 2152 0.5958400000000001 -1.453528424204389
X 8 6 8 4.25 3.25 4.25 2153 0.6591800000000001 -2.12204369979864
X 8 6 9 4.25 3.25 4.75 2154 0.69586 -2.774447110148929
X 8 6 10 4.25 3.25 5.25 2155 0.72624 -3.266116715835377
X 8 6 11 4.25 3.25 5.75 2156 0.72396 -3.441984096013275
X 8 6 12 4.25 3.25 6.25 2157 0.7032400000000001 -3.220876015568114
X 8 6 13 4.25 3.25 6.75 2158 0.6818400000000001 -2.698061027869326
X 8 6 14 4.25 3.25 7.25 2159 0.6271 -2.01244882966607
X 8 6 15 4.25 3.25 7.75 2160 0.5742200000000001 -1.313779490586697
X 8 7 0 4.25 3.75 0.25 2161 0.48998 -0.5969361659378725
X 8 7 1 4.25 3.75 0.75 2162 0.44146 -0.1692535578514105
X 8 7 2 4.25 3.75 1.25 2163 0.413 0.08842342487135052
X 8 7 3 4.25 3.75 1.75 2164 0.38802 0.1843745861192808
X 8 7 4 4.25 3.75 2.25 2165 0.4244 -2.810264939809249e-05
X 8 7 5 4.25 3.75 2.75 2166 0.48146 -0.4249459544790758
X 8 7 6 4.25 3.75 3.25 2167 0.5380199999999999 -0.9065432442172285
X 8 7 7 4.25 3.75 3.75 2168 0.5941799999999999 -1.442352663117165
X 8 7 8 4.25 3.75 4.25 2169 0.6561399999999999 -2.041662110523526
X 8 7 9 4.25 3.75 4.75 2170 0.67718 -2.621715412146572
X 8 7 10 4.25 3.75 5.25 2171 0.69548 -3.054092950480833
X 8 7 11 4.25 3.75 5.75 2172 0.72554 -3.168593996486559
X 8 7 12 4.25 3.75 6.25 2173 0.69918 -2.949824586621461
X 8 7 13 4.25 3.75 6.75 2174 0.66274 -2.463595787237696
X 8 7 14 4.25 3.75 7.25 2175 0.6100200000000001 -1.825484685674148
X 8 7 15 4.25 3.75 7.75 2176 0.5622199999999999 -1.1681056538371
X 8 8 0 4.25 4.25 0.25 2177 0.45404 -0.4229321909335301
X 8 8 1 4.25 4.25 0.75 2178 0.4119 -0.04021260121761516
X 8 8 2 4.25 4.25 1.25 2179 0.40862 0.1728245682640762
X 8 8 3 4.25 4.25 1.75 2180 0.39062 0.2424000790002073
X 8 8 4 4.25 4.25 2.25 2181 0.416 0.02328379033630338
X 8 8 5 4.25 4.25 2.75 2182 0.47366 -0.4004614048848331
X 8 8 6 4.25 4.25 3.25 2183 0.5435599999999999 -0.8789293935871185
X 8 8 7 4.25 4.25 3.75 2184 0.5888800000000001 -1.351528421920155
X 8 8 8 4.25 4.25 4.25 2185 0.63336 -1.85853770354018
X 8 8 9 4.25 4.25 4.75 2186 0.66508 -2.345333725068254
X 8 8 10 4.25 4.25 5.25 2187 0.69774 -2.687293988041669
X 8 8 11 4.25 4.25 5.75 2188 0.6839 -2.746974766451619
X 8 8 12 4.25 4.25 6.25 2189 0.65632 -2.534625595179517
X 8 8 13 4.25 4.25 6.75 2190 0.60812 -2.096661578909545
X 8 8 14 4.25 4.25 7.25 2191 0.5914199999999999 -1.528439256279687
X 8 8 15 4.25 4.25 7.75 2192 0.5274599999999999 -0.9396022766626385
X 8 9 0 4.25 4.75 0.25 2193 0.43092 -0.2230439194327778
X 8 9 1 4.25 4.75 0.75 2194 0.38282 0.08966529746321963
X 8 9 2 4.25 4.75 1.25 2195 0.36932 0.2644456584697168
X 8 9 3 4.25 4.75 1.75 2196 0.38228 0.2937787571521161
X 8 9 4 4.25 4.75 2.25 2197 0.4099599999999999 0.06440683160780587
X 8 9 5 4.25 4.75 2.75 2198 0.46786 -0.3461528019550826
X 8 9 6 4.25 4.75 3.25 2199 0.51998 -0.7823273732963765
X 8 9 7 4.25 4.75 3.75 2200 0.58268 -1.188480423623732
X 8 9 8 4.25 4.75 4.25 2201 0.6095200000000001 -1.602626892223821
X 8 9 9 4.25 4.75 4.75 2202 0.6256 -1.995423426708943
X 8 9 10 4.25 4.75 5.25 2203 0.6521199999999999 -2.242786852314341
X 8 9 11 4.25 4.75 5.75 2204 0.64064 -2.242289925200718
X 8 9 12 4.25 4.75 6.25 2205 0.618 -2.019353370706774
X 8 9 13 4.25 4.75 6.75 2206 0.58806 -1.629320132862589
X 8 9 14 4.25 4.75 7.25 2207 0.5389 -1.153015239999158
X 8 9 15 4.25 4.75 7.75 2208 0.4913399999999999 -0.6615520305323201
X 8 10 0 4.25 5.25 0.25 2209 0.3963 -0.03709583147244275
X 8 10 1 4.25 5.25 0.75 2210 0.36364 0.2083082546055293
X 8 10 2 4.25 5.25 1.25 2211 0.3540200000000001 0.3483420056251928
X 8 10 3 4.25 5.25 1.75 2212 0.36032 0.3289818707943918
X 8 10 4 4.25 5.25 2.25 2213 0.39992 0.1138231931249726
X 8 10 5 4.25 5.25 2.75 2214 0.4641 -0.2529070485674749
X 8 10 6 4.25 5.25 3.25 2215 0.51222 -0.6342560315534207
X 8 10 7 4.25 5.25 3.75 2216 0.5523 -0.9621403219789405
X 8 10 8 4.25 5.25 4.25 2217 0.57218 -1.294522812090978
X 8 10 9 4.25 5.25 4.75 2218 0.60788 -1.60113524649286
X 8 10 10 4.25 5.25 5.25 2219 0.61548 -1.755150989979676
X 8 10 11 4.25 5.25 5.75 2220 0.58426 -1.663283884163345
X 8 10 12 4.25 5.25 6.25 2221 0.55694 -1.385155764914955
X 8 10 13 4.25 5.25 6.75 2222 0.5439999999999999 -1.03534980379278
X 8 10 14 4.25 5.25 7.25 2223 0.4838 -0.6923074409217016
X 8 10 15 4.25 5.25 7.75 2224 0.44178 -0.3525003537325197
X 8 11 0 4.25 5.75 0.25 2225 0.34992 0.1322334905778245
X 8 11 1 4.25 5.75 0.75 2226 0.3435799999999999 0.3054751197028108
X 8 11 2 4.25 5.75 1.25 2227 0.33416 0.4061159924709787
X 8 11 3 4.25 5.75 1.75 2228 0.35198 0.3186560636315045
X 8 11 4 4.25 5.75 2.25 2229 0.38388 0.1477443391201024
X 8 11 5 4.25 5.75 2.75 2230 0.4406 -0.1276127651408057
X 8 11 6 4.25 5.75 3.25 2231 0.4759 -0.4537763368318697
X 8 11 7 4.25 5.75 3.75 2232 0.52264 -0.71393402572262
X 8 11 8 4.25 5.75 4.25 2233 0.5534800000000001 -0.9667825345629567
X 8 11 9 4.25 5.75 4.75 2234 0.54808 -1.188893302080485
X 8 11 10 4.25 5.75 5.25 2235 0.55416 -1.251069876306954
X 8 11 11 4.25 5.75 5.75 2236 0.54326 -1.034404577361075
X 8 11 12 4.25 5.75 6.25 2237 0.49346 -0.6559142966564484
X 8 11 13 4.25 5.75 6.75 2238 0.4566 -0.3413961352346281
X 8 11 14 4.25 5.75 7.25 2239 0.41566 -0.1778017995025852
X 8 11 15 4.25 5.75 7.75 2240 0.3802599999999999 -0.0472947364174854
X 8 12 0 4.25 6.25 0.25 2241 0.3510399999999999 0.2630214093888724
X 8 12 1 4.25 6.25 0.75 2242 0.32944 0.3704788390796408
X 8 12 2 4.25 6.25 1.25 2243 0.3253 0.392011207630459
X 8 12 3 4.25 6.25 1.75 2244 0.35386 0.271437921627791
X 8 12 4 4.25 6.25 2.25 2245 0.38296 0.1336208710545833
X 8 12 5 4.25 6.25 2.75 2246 0.41084 -0.01968430084970267
X 8 12 6 4.25 6.25 3.25 2247 0.45444 -0.2539752865087818
X 8 12 7 4.25 6.25 3.75 2248 0.4895600000000001 -0.4582221534903821
X 8 12 8 4.25 6.25 4.25 2249 0.5127400000000001 -0.6592733664693152
X 8 12 9 4.25 6.25 4.75 2250 0.51906 -0.815879230288688
X 8 12 10 4.25 6.25 5.25 2251 0.51808 -0.8153898883350661
X 8 12 11 4.25 6.25 5.75 2252 0.492 -0.5147056477675372
X 8 12 12 4.25 6.25 6.25 2253 0.43028 -0.0736060298146389
X 8 12 13 4.25 6.25 6.75 2254 0.37912 0.2039686419809759
X 8 12 14 4.25 6.25 7.25 2255 0.35946 0.2248315321762026
X 8 12 15 4.25 6.25 7.75 2256 0.34688 0.1960753569791644
X 8 13 0 4.25 6.75 0.25 2257 0.32864 0.3238224661112171
X 8 13 1 4.25 6.75 0.75 2258 0.32934 0.3678131776585563
X 8 13 2 4.25 6.75 1.25 2259 0.3462 0.296052070317427
X 8 13 3 4.25 6.75 1.75 2260 0.35522 0.1950989598261051
X 8 13 4 4.25 6.75 2.25 2261 0.3932599999999999 0.09001492336550181
X 8 13 5 4.25 6.75 2.75 2262 0.40544 -0.0004428597648271069
X 8 13 6 4.25 6.75 3.25 2263 0.4310599999999999 -0.07487551036731273
X 8 13 7 4.25 6.75 3.75 2264 0.46662 -0.2202269045279809
X 8 13 8 4.25 6.75 4.25 2265 0.48484 -0.3732614306829972
X 8 13 9 4.25 6.75 4.75 2266 0.4819 -0.4914295644921742
X 8 13 10 4.25 6.75 5.25 2267 0.48436 -0.4888642681834418
X 8 13 11 4.25 6.75 5.75 2268 0.44126 -0.2436766981416015
X 8 13 12 4.25 6.75 6.25 2269 0.39218 0.140214874722768
X 8 13 13 4.25 6.75 6.75 2270 0.35628 0.3730246542948943
X 8 13 14 4.25 6.75 7.25 2271 0.34116 0.3616530239777344
X 8 13 15 4.25 6.75 7.75 2272 0.3356 0.3007902408416335
X 8 14 0 4.25 7.25 0.25 2273 0.3436 0.2913240214241624
X 8 14 1 4.25 7.25 0.75 2274 0.34622 0.2457692141242281
X 8 14 2 4.25 7.25 1.25 2275 0.3593800000000001 0.1779833502659849
X 8 14 3 4.25 7.25 1.75 2276 0.37454 0.1045218118580661
X 8 14 4 4.25 7.25 2.25 2277 0.3903 0.03094072294778818
X 8 14 5 4.25 7.25 2.75 2278 0.41166 -0.006279148565851751
X 8 14 6 4.25 7.25 3.25 2279 0.4278799999999999 -0.00780952325502612
X 8 14 7 4.25 7.25 3.75 2280 0.4485 -0.04357055052188591
X 8 14 8 4.25 7.25 4.25 2281 0.46488 -0.1641454649280086
X 8 14 9 4.25 7.25 4.75 2282 0.48262 -0.2804823059039055
X 8 14 10 4.25 7.25 5.25 2283 0.47282 -0.3157236828302208
X 8 14 11 4.25 7.25 5.75 2284 0.44776 -0.2114826407520996
X 8 14 12 4.25 7.25 6.25 2285 0.42634 0.01783866345671052
X 8 14 13 4.25 7.25 6.75 2286 0.38136 0.2032693673832446
X 8 14 14 4.25 7.25 7.25 2287 0.3619999999999999 0.2626139537874608
X 8 14 15 4.25 7.25 7.75 2288 0.3328 0.2829546757769211
X 8 15 0 4.25 7.75 0.25 2289 0.36694 0.1343477919997906
X 8 15 1 4.25 7.75 0.75 2290 0.3681200000000001 0.1100467439554438
X 8 15 2 4.25 7.75 1.25 2291 0.38402 0.0654070073810414
X 8 15 3 4.25 7.75 1.75 2292 0.39514 0.02200166683546614
X 8 15 4 4.25 7.75 2.25 2293 0.3938 0.0002272741359606218
X 8 15 5 4.25 7.75 2.75 2294 0.42452 -0.001917457886329871
X 8 15 6 4.25 7.75 3.25 2295 0.4181800000000001 -0.01508936936671287
X 8 15 7 4.25 7.75 3.75 2296 0.43418 -0.06190976949998098
X 8 15 8 4.25 7.75 4.25 2297 0.46356 -0.1270527392880176
X 8 15 9 4.25 7.75 4.75 2298 0.4565399999999999 -0.2160087092604416
X 8 15 10 4.25 7.75 5.25 2299 0.46588 -0.2783352635354741
X 8 15 11 4.25 7.75 5.75 2300 0.46592 -0.2676082450755388
X 8 15 12 4.25 7.75 6.25 2301 0.4508 -0.1772848430631392
X 8 15 13 4.25 7.75 6.75 2302 0.41562 -0.04514085143877768
X 8 15 14 4.25 7.75 7.25 2303 0.3883 0.06070946880565484
X 8 15 15 4.25 7.75 7.75 2304 0.37332 0.1182343369693992
X 9 0 0 4.75 0.25 0.25 2305 0.38068 0.09036822786904629
X 9 0 1 4.75 0.25 0.75 2306 0.37382 0.08049501108586413
X 9 0 2 4.75 0.25 1.25 2307 0.38396 0.04239684076496699
X 9 0 3 4.75 0.25 1.75 2308 0.40558 0.01087779229363399
X 9 0 4 4.75 0.25 2.25 2309 0.39932 0
X 9 0 5 4.75 0.25 2.75 2310 0.4096000000000001 -0.000287470259638302
X 9 0 6 4.75 0.25 3.25 2311 0.43356 -0.01991220560095554
X 9 0 7 4.75 0.25 3.75 2312 0.4494 -0.07450268679699515
X 9 0 8 4.75 0.25 4.25 2313 0.46028 -0.1469861493056474
X 9 0 9 4.75 0.25 4.75 2314 0.47206 -0.2219939220087782
X 9 0 10 4.75 0.25 5.25 2315 0.47384 -0.2760466528868324
X 9 0 11 4.75 0.25 5.75 2316 0.45478 -0.2925104855786884
X 9 0 12 4.75 0.25 6.25 2317 0.45454 -0.2576770803213045
X 9 0 13 4.75 0.25 6.75 2318 0.43432 -0.1688749147517231
X 9 0 14 4.75 0.25 7.25 2319 0.40862 -0.05563060556869336
X 9 0 15 4.75 0.25 7.75 2320 0.38448 0.03928325010111205
X 9 1 0 4.75 0.75 0.25 2321 0.4059400000000001 -0.04202318729386931
X 9 1 1 4.75 0.75 0.75 2322 0.40078 -0.003072869944788984
X 9 1 2 4.75 0.75 1.25 2323 0.40114 1.093452765256416e-06
X 9 1 3 4.75 0.75 1.75 2324 0.40156 0
X 9 1 4 4.75 0.75 2.25 2325 0.4096399999999999 0
X 9 1 5 4.75 0.75 2.75 2326 0.41878 -0.008348546909319585
X 9 1 6 4.75 0.75 3.25 2327 0.44258 -0.06258716646657338
X 9 1 7 4.75 0.75 3.75 2328 0.45878 -0.1539227277179707
X 9 1 8 4.75 0.75 4.25 2329 0.46514 -0.2904853460481214
X 9 1 9 4.75 0.75 4.75 2330 0.5031600000000001 -0.4653046930880747
X 9 1 10 4.75 0.75 5.25 2331 0.5023 -0.6104929626897346
X 9 1 11 4.75 0.75 5.75 2332 0.50776 -0.6649314309204418
X 9 1 12 4.75 0.75 6.25 2333 0.5111999999999999 -0.6117822415975771
X 9 1 13 4.75 0.75 6.75 2334 0.4813399999999999 -0.4704053983192367
X 9 1 14 4.75 0.75 7.25 2335 0.44214 -0.2871540726400225
X 9 1 15 4.75 0.75 7.75 2336 0.41918 -0.1297731772545906
X 9 2 0 4.75 1.25 0.25 2337 0.42536 -0.1155975175224338
X 9 2 1 4.75 1.25 0.75 2338 0.41886 -0.01689748425687358
X 9 2 2 4.75 1.25 1.25 2339 0.39856 0
X 9 2 3 4.75 1.25 1.75 2340 0.41798 0
X 9 2 4 4.75 1.25 2.25 2341 0.44386 0
X 9 2 5 4.75 1.25 2.75 2342 0.42586 -0.02788093882496796
X 9 2 6 4.75 1.25 3.25 2343 0.45228 -0.1126671884346415
X 9 2 7 4.75 1.25 3.75 2344 0.48204 -0.2997566960826321
X 9 2 8 4.75 1.25 4.25 2345 0.52114 -0.5902450205798264
X 9 2 9 4.75 1.25 4.75 2346 0.5435000000000001 -0.8780693545804328
X 9 2 10 4.75 1.25 5.25 2347 0.5506800000000001 -1.091676785292738
X 9 2 11 4.75 1.25 5.75 2348 0.5595800000000001 -1.171401438687586
X 9 2 12 4.75 1.25 6.25 2349 0.5557599999999999 -1.095420098557901
X 9 2 13 4.75 1.25 6.75 2350 0.52676 -0.8910082722070367
X 9 2 14 4.75 1.25 7.25 2351 0.49802 -0.6184140639471856
X 9 2 15 4.75 1.25 7.75 2352 0.45862 -0.340763436413676
X 9 3 0 4.75 1.75 0.25 2353 0.4522599999999999 -0.2653095386396735
X 9 3 1 4.75 1.75 0.75 2354 0.42672 -0.04007671471548963
X 9 3 2 4.75 1.75 1.25 2355 0.42624 0.007495108661300238
X 9 3 3 4.75 1.75 1.75 2356 0.41324 -1.484886824097286e-05
X 9 3 4 4.75 1.75 2.25 2357 0.40872 -0.002051530111218704
X 9 3 5 4.75 1.75 2.75 2358 0.4338 -0.047265460666232
X 9 3 6 4.75 1.75 3.25 2359 0.45978 -0.2179506602735333
X 9 3 7 4.75 1.75 3.75 2360 0.5133800000000001 -0.5446368887717414
X 9 3 8 4.75 1.75 4.25 2361 0.54726 -0.9295958580091944
X 9 3 9 4.75 1.75 4.75 2362 0.5730000000000001 -1.30493031441359
X 9 3 10 4.75 1.75 5.25 2363 0.60802 -1.583876412239459
X 9 3 11 4.75 1.75 5.75 2364 0.59148 -1.689412586167764
X 9 3 12 4.75 1.75 6.25 2365 0.59006 -1.5931763938285
X 9 3 13 4.75 1.75 6.75 2366 0.57012 -1.327837220999493
X 9 3 14 4.75 1.75 7.25 2367 0.5362 -0.9631233103061344
X 9 3 15 4.75 1.75 7.75 2368 0.48986 -0.5865069748362111
X 9 4 0 4.75 2.25 0.25 2369 0.4565 -0.3273971907282305
X 9 4 1 4.75 2.25 0.75 2370 0.42978 -0.04062500367516739
X 9 4 2 4.75 2.25 1.25 2371 0.40134 0.09107762580478877
X 9 4 3 4.75 2.25 1.75 2372 0.43194 0.04588836121221477
X 9 4 4 4.75 2.25 2.25 2373 0.41618 0.002130731022610135
X 9 4 5 4.75 2.25 2.75 2374 0.44584 -0.08879506544770195
X 9 4 6 4.75 2.25 3.25 2375 0.48822 -0.3745072462863867
X 9 4 7 4.75 2.25 3.75 2376 0.53266 -0.7693628624304144
X 9 4 8 4.75 2.25 4.25 2377 0.57164 -1.225650309631283
X 9 4 9 4.75 2.25 4.75 2378 0.61314 -1.668543011397984
X 9 4 10 4.75 2.25 5.25 2379 0.62546 -1.99822372601898
X 9 4 11 4.75 2.25 5.75 2380 0.65308 -2.126027748301229
X 9 4 12 4.75 2.25 6.25 2381 0.6365000000000001 -2.001342887889241
X 9 4 13 4.75 2.25 6.75 2382 0.5895199999999999 -1.647601999260428
X 9 4 14 4.75 2.25 7.25 2383 0.55976 -1.182884226427362
X 9 4 15 4.75 2.25 7.75 2384 0.5059399999999999 -0.7184539628228929
X 9 5 0 4.75 2.75 0.25 2385 0.46022 -0.3157488678542099
X 9 5 1 4.75 2.75 0.75 2386 0.42128 0.004414269505022699
X 9 5 2 4.75 2.75 1.25 2387 0.3930799999999999 0.1877979896401243
X 9 5 3 4.75 2.75 1.75 2388 0.40402 0.1592457030528794
X 9 5 4 4.75 2.75 2.25 2389 0.40418 0.06855260240573371
X 9 5 5 4.75 2.75 2.75 2390 0.45736 -0.15609172817734
X 9 5 6 4.75 2.75 3.25 2391 0.49656 -0.5021260791561937
X 9 5 7 4.75 2.75 3.75 2392 0.5396400000000001 -0.9358523556617346
X 9 5 8 4.75 2.75 4.25 2393 0.58572 -1.430685313422065
X 9 5 9 4.75 2.75 4.75 2394 0.61602 -1.907702066923696
X 9 5 10 4.75 2.75 5.25 2395 0.64802 -2.263349289052248
X 9 5 11 4.75 2.75 5.75 2396 0.65978 -2.378972882888957
X 9 5 12 4.75 2.75 6.25 2397 0.64096 -2.192811339642561
X 9 5 13 4.75 2.75 6.75 2398 0.59846 -1.788892370344758
X 9 5 14 4.75 2.75 7.25 2399 0.56982 -1.272213285726451
X 9 5 15 4.75 2.75 7.75 2400 0.51146 -0.7538584647253805
X 9 6 0 4.75 3.25 0.25 2401 0.4389400000000001 -0.2251943945014365
X 9 6 1 4.75 3.25 0.75 2402 0.4026 0.1069198148294119
X 9 6 2 4.75 3.25 1.25 2403 0.3838200000000001 0.2895705431044366
X 9 6 3 4.75 3.25 1.75 2404 0.38268 0.2899022414597061
X 9 6 4 4.75 3.25 2.25 2405 0.4033 0.1534526950968224
X 9 6 5 4.75 3.25 2.75 2406 0.44774 -0.1662113262429764
X 9 6 6 4.75 3.25 3.25 2407 0.50442 -0.580967648377927
X 9 6 7 4.75 3.25 3.75 2408 0.5587799999999999 -1.025942682235676
X 9 6 8 4.75 3.25 4.25 2409 0.59922 -1.522558749038478
X 9 6 9 4.75 3.25 4.75 2410 0.6342999999999999 -1.997256689401801
X 9 6 10 4.75 3.25 5.25 2411 0.6676599999999999 -2.335761445790473
X 9 6 11 4.75 3.25 5.75 2412 0.66144 -2.39455301558186
X 9 6 12 4.75 3.25 6.25 2413 0.627 -2.185463099522187
X 9 6 13 4.75 3.25 6.75 2414 0.61932 -1.762447154040825
X 9 6 14 4.75 3.25 7.25 2415 0.5666 -1.224670148802627
X 9 6 15 4.75 3.25 7.75 2416 0.48852 -0.6835638571214807
X 9 7 0 4.75 3.75 0.25 2417 0.41798 -0.0669268077681576
X 9 7 1 4.75 3.75 0.75 2418 0.37244 0.2526132593987648
X 9 7 2 4.75 3.75 1.25 2419 0.35952 0.4142683086657794
X 9 7 3 4.75 3.75 1.75 2420 0.35274 0.416594136725672
X 9 7 4 4.75 3.75 2.25 2421 0.39618 0.2308337746361592
X 9 7 5 4.75 3.75 2.75 2422 0.4417800000000001 -0.1318899225672747
X 9 7 6 4.75 3.75 3.25 2423 0.5100399999999999 -0.5880146362677415
X 9 7 7 4.75 3.75 3.75 2424 0.5547199999999999 -1.038256460898455
X 9 7 8 4.75 3.75 4.25 2425 0.58862 -1.505012025011792
X 9 7 9 4.75 3.75 4.75 2426 0.63 -1.946975626554914
X 9 7 10 4.75 3.75 5.25 2427 0.64006 -2.217518496373523
X 9 7 11 4.75 3.75 5.75 2428 0.6381 -2.23598711115574
X 9 7 12 4.75 3.75 6.25 2429 0.6312400000000001 -2.012856444471112
X 9 7 13 4.75 3.75 6.75 2430 0.5954199999999999 -1.589168317063991
X 9 7 14 4.75 3.75 7.25 2431 0.53734 -1.05638859444265
X 9 7 15 4.75 3.75 7.75 2432 0.48084 -0.5204446161241728
X 9 8 0 4.75 4.25 0.25 2433 0.38012 0.129653880208751
X 9 8 1 4.75 4.25 0.75 2434 0.34278 0.4111317361841408
X 9 8 2 4.75 4.25 1.25 2435 0.3213 0.5473288132078676
X 9 8 3 4.75 4.25 1.75 2436 0.3447 0.5245587000361009
X 9 8 4 4.75 4.25 2.25 2437 0.37322 0.3042044860418056
X 9 8 5 4.75 4.25 2.75 2438 0.42688 -0.08047993681740646
X 9 8 6 4.75 4.25 3.25 2439 0.48746 -0.5311234479172258
X 9 8 7 4.75 4.25 3.75 2440 0.55948 -0.9792961901915114
X 9 8 8 4.75 4.25 4.25 2441 0.57914 -1.396219671363523
X 9 8 9 4.75 4.25 4.75 2442 0.62332 -1.77923965235625
X 9 8 10 4.75 4.25 5.25 2443 0.65364 -1.975237023279653
X 9 8 11 4.75 4.25 5.75 2444 0.61422 -1.959043311151048
X 9 8 12 4.75 4.25 6.25 2445 0.61598 -1.726167310565341
X 9 8 13 4.75 4.25 6.75 2446 0.5602 -1.314690932462117
X 9 8 14 4.75 4.25 7.25 2447 0.5093999999999999 -0.8063843824352407
X 9 8 15 4.75 4.25 7.75 2448 0.4395600000000001 -0.2974304596827008
X 9 9 0 4.75 4.75 0.25 2449 0.35306 0.3170690118188493
X 9 9 1 4.75 4.75 0.75 2450 0.31524 0.555615091581123
X 9 9 2 4.75 4.75 1.25 2451 0.29718 0.6642488224326173
X 9 9 3 4.75 4.75 1.75 2452 0.3152 0.5981171582258391
X 9 9 4 4.75 4.75 2.25 2453 0.35202 0.3646628483029284
X 9 9 5 4.75 4.75 2.75 2454 0.41884 -0.01674572193122431
X 9 9 6 4.75 4.75 3.25 2455 0.4731399999999999 -0.4397464641428284
X 9 9 7 4.75 4.75 3.75 2456 0.52928 -0.8544528735407904
X 9 9 8 4.75 4.75 4.25 2457 0.55868 -1.216378400329666
X 9 9 9 4.75 4.75 4.75 2458 0.5982999999999999 -1.530608593464653
X 9 9 10 4.75 4.75 5.25 2459 0.6084000000000001 -1.662544141409357
X 9 9 11 4.75 4.75 5.75 2460 0.5758800000000001 -1.611148476502023
X 9 9 12 4.75 4.75 6.25 2461 0.58296 -1.370720774725988
X 9 9 13 4.75 4.75 6.75 2462 0.52808 -0.9810052265186565
X 9 9 14 4.75 4.75 7.25 2463 0.46878 -0.5151519116958785
X 9 9 15 4.75 4.75 7.75 2464 0.4009 -0.05488442129353377
X 9 10 0 4.75 5.25 0.25 2465 0.31162 0.4673582098790222
X 9 10 1 4.75 5.25 0.75 2466 0.2883 0.6645141602784865
X 9 10 2 4.75 5.25 1.25 2467 0.28612 0.7408276670694826
X 9 10 3 4.75 5.25 1.75 2468 0.30776 0.6161622167851727
X 9 10 4 4.75 5.25 2.25 2469 0.34642 0.3955365678941032
X 9 10 5 4.75 5.25 2.75 2470 0.3997 0.06048019383788003
X 9 10 6 4.75 5.25 3.25 2471 0.44916 -0.3333363629360186
X 9 10 7 4.75 5.25 3.75 2472 0.51144 -0.6920473438574531
X 9 10 8 4.75 5.25 4.25 2473 0.52882 -0.9860313016357899
X 9 10 9 4.75 5.25 4.75 2474 0.5730599999999999 -1.236566838343716
X 9 10 10 4.75 5.25 5.25 2475 0.5762 -1.313881506031958
X 9 10 11 4.75 5.25 5.75 2476 0.5636599999999999 -1.223849089657859
X 9 10 12 4.75 5.25 6.25 2477 0.514 -0.9723020971769643
X 9 10 13 4.75 5.25 6.75 2478 0.4809 -0.6129937517448918
X 9 10 14 4.75 5.25 7.25 2479 0.4209 -0.2132093962335383
X 9 10 15 4.75 5.25 7.75 2480 0.35576 0.1632899524223488
X 9 11 0 4.75 5.75 0.25 2481 0.28406 0.5813548771336204
X 9 11 1 4.75 5.75 0.75 2482 0.26982 0.7277130162715287
X 9 11 2 4.75 5.75 1.25 2483 0.26758 0.7453279065282855
X 9 11 3 4.75 5.75 1.75 2484 0.31148 0.5766354581481378
X 9 11 4 4.75 5.75 2.25 2485 0.35044 0.3743722706248623
X 9 11 5 4.75 5.75 2.75 2486 0.38504 0.1332689247309662
X 9 11 6 4.75 5.75 3.25 2487 0.4479400000000001 -0.2091306023182354
X 9 11 7 4.75 5.75 3.75 2488 0.4842 -0.5111678886072845
X 9 11 8 4.75 5.75 4.25 2489 0.52144 -0.7451963638450643
X 9 11 9 4.75 5.75 4.75 2490 0.5515999999999999 -0.9379354160583838
X 9 11 10 4.75 5.75 5.25 2491 0.5334800000000001 -0.9662967139494791
X 9 11 11 4.75 5.75 5.75 2492 0.528 -0.8352282176711152
X 9 11 12 4.75 5.75 6.25 2493 0.46756 -0.5723548604389719
X 9 11 13 4.75 5.75 6.75 2494 0.4345 -0.2511627094433959
X 9 11 14 4.75 5.75 7.25 2495 0.37976 0.06075391296117283
X 9 11 15 4.75 5.75 7.75 2496 0.3259 0.3461714966373372
X 9 12 0 4.75 6.25 0.25 2497 0.27842 0.6371706513518725
X 9 12 1 4.75 6.25 0.75 2498 0.26936 0.7297523677592129
X 9 12 2 4.75 6.25 1.25 2499 0.28082 0.6569444603811669
X 9 12 3 4.75 6.25 1.75 2500 0.31722 0.4863633831670174
X 9 12 4 4.75 6.25 2.25 2501 0.35812 0.3125962321509007
X 9 12 5 4.75 6.25 2.75 2502 0.37986 0.1485265558131641
X 9 12 6 4.75 6.25 3.25 2503 0.42222 -0.08703525802157311
X 9 12 7 4.75 6.25 3.75 2504 0.46582 -0.3116662193926687
X 9 12 8 4.75 6.25 4.25 2505 0.47116 -0.4960340356776441
X 9 12 9 4.75 6.25 4.75 2506 0.4990800000000001 -0.652496737094011
X 9 12 10 4.75 6.25 5.25 2507 0.4924 -0.6627464953498096
X 9 12 11 4.75 6.25 5.75 2508 0.4686999999999999 -0.5114245099107316
X 9 12 12 4.75 6.25 6.25 2509 0.43212 -0.2490422726190694
X 9 12 13 4.75 6.25 6.75 2510 0.37932 0.03364309656341871
X 9 12 14 4.75 6.25 7.25 2511 0.34046 0.2709278629800737
X 9 12 15 4.75 6.25 7.75 2512 0.29424 0.4717065398006485
X 9 13 0 4.75 6.75 0.25 2513 0.27706 0.6214629773567312
X 9 13 1 4.75 6.75 0.75 2514 0.28176 0.6211262667538318
X 9 13 2 4.75 6.75 1.25 2515 0.30522 0.5053622042232238
X 9 13 3 4.75 6.75 1.75 2516 0.32054 0.3632863258338846
X 9 13 4 4.75 6.75 2.25 2517 0.36836 0.2233915672881288
X 9 13 5 4.75 6.75 2.75 2518 0.3805999999999999 0.09557374381455404
X 9 13 6 4.75 6.75 3.25 2519 0.4102199999999999 -0.0070205001051868
X 9 13 7 4.75 6.75 3.75 2520 0.4352400000000001 -0.1206883946781396
X 9 13 8 4.75 6.75 4.25 2521 0.4627 -0.2583177179866488
X 9 13 9 4.75 6.75 4.75 2522 0.47304 -0.3771109471377699
X 9 13 10 4.75 6.75 5.25 2523 0.46646 -0.4041073470421968
X 9 13 11 4.75 6.75 5.75 2524 0.43502 -0.2729119141782586
X 9 13 12 4.75 6.75 6.25 2525 0.40908 -0.04990999633871169
X 9 13 13 4.75 6.75 6.75 2526 0.35608 0.1805261402229965
X 9 13 14 4.75 6.75 7.25 2527 0.3255 0.3631807360560564
X 9 13 15 4.75 6.75 7.75 2528 0.2968 0.5081987545525564
X 9 14 0 4.75 7.25 0.25 2529 0.31364 0.4828742199104106
X 9 14 1 4.75 7.25 0.75 2530 0.3101 0.42875887978413
X 9 14 2 4.75 7.25 1.25 2531 0.32556 0.336291617033237
X 9 14 3 4.75 7.25 1.75 2532 0.3508 0.2274997495945082
X 9 14 4 4.75 7.25 2.25 2533 0.3771 0.1233802554705483
X 9 14 5 4.75 7.25 2.75 2534 0.3975 0.03063678946242244
X 9 14 6 4.75 7.25 3.25 2535 0.4139 -0.002414972366401875
X 9 14 7 4.75 7.25 3.75 2536 0.4216 -0.006558996477324109
X 9 14 8 4.75 7.25 4.25 2537 0.4388 -0.06381121111239431
X 9 14 9 4.75 7.25 4.75 2538 0.45542 -0.1577166618727801
X 9 14 10 4.75 7.25 5.25 2539 0.44538 -0.2163078923887079
X 9 14 11 4.75 7.25 5.75 2540 0.42886 -0.1550561039010175
X 9 14 12 4.75 7.25 6.25 2541 0.4068 0.005924862340929692
X 9 14 13 4.75 7.25 6.75 2542 0.34932 0.1909757549574981
X 9 14 14 4.75 7.25 7.25 2543 0.33328 0.3509754760549288
X 9 14 15 4.75 7.25 7.75 2544 0.31238 0.4597955029872289
X 9 15 0 4.75 7.75 0.25 2545 0.34146 0.2768827077584732
X 9 15 1 4.75 7.75 0.75 2546 0.33744 0.2388069096394635
X 9 15 2 4.75 7.75 1.25 2547 0.34846 0.1747817519853272
X 9 15 3 4.75 7.75 1.75 2548 0.3832 0.1006361802414893
X 9 15 4 4.75 7.75 2.25 2549 0.3904 0.03186108732090358
X 9 15 5 4.75 7.75 2.75 2550 0.4105199999999999 0.0007078006452689564
X 9 15 6 4.75 7.75 3.25 2551 0.42096 -0.001416784959350442
X 9 15 7 4.75 7.75 3.75 2552 0.43038 -0.01804396505732465
X 9 15 8 4.75 7.75 4.25 2553 0.44776 -0.05496276833810746
X 9 15 9 4.75 7.75 4.75 2554 0.45118 -0.09688591107010655
X 9 15 10 4.75 7.75 5.25 2555 0.44486 -0.1387239061664279
X 9 15 11 4.75 7.75 5.75 2556 0.44002 -0.1407619154479152
X 9 15 12 4.75 7.75 6.25 2557 0.42164 -0.05594510357431253
X 9 15 13 4.75 7.75 6.75 2558 0.38792 0.07965682800010544
X 9 15 14 4.75 7.75 7.25 2559 0.35638 0.1974984962296519
X 9 15 15 4.75 7.75 7.75 2560 0.3475199999999999 0.2666939886837405
X 10 0 0 5.25 0.25 0.25 2561 0.3313 0.2782028079451679
X 10 0 1 5.25 0.25 0.75 2562 0.34166 0.2347318836940122
X 10 0 2 5.25 0.25 1.25 2563 0.36516 0.1598925321392027
X 10 0 3 5.25 0.25 1.75 2564 0.3771599999999999 0.0693051348237064
X 10 0 4 5.25 0.25 2.25 2565 0.39566 0.009605459242464675
X 10 0 5 5.25 0.25 2.75 2566 0.39244 0
X 10 0 6 5.25 0.25 3.25 2567 0.41696 -0.0008456625198321853
X 10 0 7 5.25 0.25 3.75 2568 0.42624 -0.01675216156132692
X 10 0 8 5.25 0.25 4.25 2569 0.44736 -0.05217128822794637
X 10 0 9 5.25 0.25 4.75 2570 0.43752 -0.08694746741029429
X 10 0 10 5.25 0.25 5.25 2571 0.4398800000000001 -0.1101093543285017
X 10 0 11 5.25 0.25 5.75 2572 0.42516 -0.1073919582784204
X 10 0 12 5.25 0.25 6.25 2573 0.40142 -0.03914383366848711
X 10 0 13 5.25 0.25 6.75 2574 0.3938 0.08213923098049432
X 10 0 14 5.25 0.25 7.25 2575 0.35992 0.1961841264396154
X 10 0 15 5.25 0.25 7.75 2576 0.33762 0.2697616101463445
X 10 1 0 5.25 0.75 0.25 2577 0.3797 0.08831294285752543
X 10 1 1 5.25 0.75 0.75 2578 0.36536 0.06360559992925573
X 10 1 2 5.25 0.75 1.25 2579 0.3966000000000001 0.02451101346646507
X 10 1 3 5.25 0.75 1.75 2580 0.3888200000000001 0.00184900745486647
X 10 1 4 5.25 0.75 2.25 2581 0.41542 0
X 10 1 5 5.25 0.75 2.75 2582 0.4157999999999999 0
X 10 1 6 5.25 0.75 3.25 2583 0.42236 -0.01160451115860916
X 10 1 7 5.25 0.75 3.75 2584 0.44222 -0.05650409026280442
X 10 1 8 5.25 0.75 4.25 2585 0.44648 -0.1140768616820479
X 10 1 9 5.25 0.75 4.75 2586 0.46632 -0.1809137318548969
X 10 1 10 5.25 0.75 5.25 2587 0.46938 -0.2422356528018821
X 10 1 11 5.25 0.75 5.75 2588 0.45318 -0.2646938572956605
X 10 1 12 5.25 0.75 6.25 2589 0.4498799999999999 -0.2236390583484825
X 10 1 13 5.25 0.75 6.75 2590 0.42896 -0.1266284367965388
X 10 1 14 5.25 0.75 7.25 2591 0.41028 -0.01552803160971745
X 10 1 15 5.25 0.75 7.75 2592 0.3791600000000001 0.05976363503565903
X 10 2 0 5.25 1.25 0.25 2593 0.4061 0.00566648693532768
X 10 2 1 5.25 1.25 0.75 2594 0.39902 0.01203736816711784
X 10 2 2 5.25 1.25 1.25 2595 0.40528 0.001377394886870851
X 10 2 3 5.25 1.25 1.75 2596 0.403 0
X 10 2 4 5.25 1.25 2.25 2597 0.41008 0
X 10 2 5 5.25 1.25 2.75 2598 0.41806 -0.00195268736647947
X 10 2 6 5.25 1.25 3.25 2599 0.43206 -0.0345902895573335
X 10 2 7 5.25 1.25 3.75 2600 0.44626 -0.1071937519538441
X 10 2 8 5.25 1.25 4.25 2601 0.4667 -0.2490631610238284
X 10 2 9 5.25 1.25 4.75 2602 0.49086 -0.4171768128614426
X 10 2 10 5.25 1.25 5.25 2603 0.4977 -0.5392586884022216
X 10 2 11 5.25 1.25 5.75 2604 0.4863799999999999 -0.580289480007453
X 10 2 12 5.25 1.25 6.25 2605 0.49158 -0.5314997434844411
X 10 2 13 5.25 1.25 6.75 2606 0.47606 -0.4073160219913634
X 10 2 14 5.25 1.25 7.25 2607 0.43788 -0.2410018488397856
X 10 2 15 5.25 1.25 7.75 2608 0.4072 -0.0792679592439072
X 10 3 0 5.25 1.75 0.25 2609 0.3861599999999999 0.00512159305660124
X 10 3 1 5.25 1.75 0.75 2610 0.38246 0.07903033747384565
X 10 3 2 5.25 1.75 1.25 2611 0.39524 0.04483429170507079
X 10 3 3 5.25 1.75 1.75 2612 0.3964 0.01197412962071602
X 10 3 4 5.25 1.75 2.25 2613 0.40036 0
X 10 3 5 5.25 1.75 2.75 2614 0.41958 -0.005868007130984218
X 10 3 6 5.25 1.75 3.25 2615 0.44896 -0.06376499100702475
X 10 3 7 5.25 1.75 3.75 2616 0.46498 -0.2421881397955646
X 10 3 8 5.25 1.75 4.25 2617 0.48672 -0.4824436149931545
X 10 3 9 5.25 1.75 4.75 2618 0.5375399999999999 -0.7091530268159973
X 10 3 10 5.25 1.75 5.25 2619 0.5327599999999999 -0.8710954807882242
X 10 3 11 5.25 1.75 5.75 2620 0.5349 -0.9269199665808951
X 10 3 12 5.25 1.75 6.25 2621 0.5353600000000001 -0.8630230549251694
X 10 3 13 5.25 1.75 6.75 2622 0.50414 -0.6846406005849061
X 10 3 14 5.25 1.75 7.25 2623 0.46418 -0.4410773719142287
X 10 3 15 5.25 1.75 7.75 2624 0.4396400000000001 -0.1959076066965473
X 10 4 0 5.25 2.25 0.25 2625 0.40074 0.03319185276820144
X 10 4 1 5.25 2.25 0.75 2626 0.37926 0.2004010301072048
X 10 4 2 5.25 2.25 1.25 2627 0.3774 0.1865738670446268
X 10 4 3 5.25 2.25 1.75 2628 0.3944 0.1153364606380507
X 10 4 4 5.25 2.25 2.25 2629 0.41276 0.04185551961262167
X 10 4 5 5.25 2.25 2.75 2630 0.42366 -0.0088886416658589
X 10 4 6 5.25 2.25 3.25 2631 0.45084 -0.1504559426179352
X 10 4 7 5.25 2.25 3.75 2632 0.50178 -0.4119539457700719
X 10 4 8 5.25 2.25 4.25 2633 0.52322 -0.7036797789829059
X 10 4 9 5.25 2.25 4.75 2634 0.53698 -0.9782554999486645
X 10 4 10 5.25 2.25 5.25 2635 0.5620400000000001 -1.175582276097539
X 10 4 11 5.25 2.25 5.75 2636 0.57528 -1.237180341414685
X 10 4 12 5.25 2.25 6.25 2637 0.54494 -1.109398280499471
X 10 4 13 5.25 2.25 6.75 2638 0.51552 -0.8494983522517143
X 10 4 14 5.25 2.25 7.25 2639 0.48616 -0.5329787954370747
X 10 4 15 5.25 2.25 7.75 2640 0.43498 -0.2234240974455449
X 10 5 0 5.25 2.75 0.25 2641 0.39616 0.1223458197311178
X 10 5 1 5.25 2.75 0.75 2642 0.37642 0.3212359152473929
X 10 5 2 5.25 2.75 1.25 2643 0.35194 0.3650910386107277
X 10 5 3 5.25 2.75 1.75 2644 0.37454 0.2654697381099382
X 10 5 4 5.25 2.75 2.25 2645 0.40116 0.1533684602288038
X 10 5 5 5.25 2.75 2.75 2646 0.41832 0.01686441275957272
X 10 5 6 5.25 2.75 3.25 2647 0.46788 -0.2514519661094918
X 10 5 7 5.25 2.75 3.75 2648 0.5048400000000001 -0.5501034790991004
X 10 5 8 5.25 2.75 4.25 2649 0.5416599999999999 -0.8769913998642673
X 10 5 9 5.25 2.75 4.75 2650 0.5659 -1.183671056881614
X 10 5 10 5.25 2.75 5.25 2651 0.5812 -1.396714376589183
X 10 5 11 5.25 2.75 5.75 2652 0.5855 -1.404405069764013
X 10 5 12 5.25 2.75 6.25 2653 0.56138 -1.227468548303181
X 10 5 13 5.25 2.75 6.75 2654 0.5280400000000001 -0.9172433031977869
X 10 5 14 5.25 2.75 7.25 2655 0.48956 -0.5426925894905339
X 10 5 15 5.25 2.75 7.75 2656 0.43328 -0.17758910911249
X 10 6 0 5.25 3.25 0.25 2657 0.36736 0.2798391026944996
X 10 6 1 5.25 3.25 0.75 2658 0.33616 0.4856835836227327
X 10 6 2 5.25 3.25 1.25 2659 0.31818 0.5552929167164952
X 10 6 3 5.25 3.25 1.75 2660 0.3414 0.4390042099619
X 10 6 4 5.25 3.25 2.25 2661 0.3675 0.2835733406381437
X 10 6 5 5.25 3.25 2.75 2662 0.41016 0.06514086339271315
X 10 6 6 5.25 3.25 3.25 2663 0.44996 -0.2950287375364489
X 10 6 7 5.25 3.25 3.75 2664 0.51212 -0.6387704972100298
X 10 6 8 5.25 3.25 4.25 2665 0.5557599999999999 -0.980547694953794
X 10 6 9 5.25 3.25 4.75 2666 0.57872 -1.298207691384839
X 10 6 10 5.25 3.25 5.25 2667 0.59768 -1.46778180064619
X 10 6 11 5.25 3.25 5.75 2668 0.5778999999999999 -1.435993801094705
X 10 6 12 5.25 3.25 6.25 2669 0.5655 -1.22542407177595
X 10 6 13 5.25 3.25 6.75 2670 0.5201399999999999 -0.8741801910163925
X 10 6 14 5.25 3.25 7.25 2671 0.481 -0.4552141476237168
X 10 6 15 5.25 3.25 7.75 2672 0.4211 -0.04928796168233465
X 10 7 0 5.25 3.75 0.25 2673 0.32712 0.4867823651774239
X 10 7 1 5.25 3.75 0.75 2674 0.2997400000000001 0.6829005020271599
X 10 7 2 5.25 3.75 1.25 2675 0.29102 0.7485351152653295
X 10 7 3 5.25 3.75 1.75 2676 0.31314 0.6146246378460735
X 10 7 4 5.25 3.75 2.25 2677 0.3451 0.4147725119139828
X 10 7 5 5.25 3.75 2.75 2678 0.3964599999999999 0.1239610983455652
X 10 7 6 5.25 3.75 3.25 2679 0.44346 -0.2698821230938809
X 10 7 7 5.25 3.75 3.75 2680 0.51902 -0.6665790408664519
X 10 7 8 5.25 3.75 4.25 2681 0.54608 -1.00626930506887
X 10 7 9 5.25 3.75 4.75 2682 0.5706199999999999 -1.299037514158009
X 10 7 10 5.25 3.75 5.25 2683 0.56818 -1.412602559896477
X 10 7 11 5.25 3.75 5.75 2684 0.5847399999999999 -1.349753371806327
X 10 7 12 5.25 3.75 6.25 2685 0.55192 -1.108720068409939
X 10 7 13 5.25 3.75 6.75 2686 0.49346 -0.7276784380649816
X 10 7 14 5.25 3.75 7.25 2687 0.43944 -0.2806046064221683
X 10 7 15 5.25 3.75 7.75 2688 0.3843 0.1481053838340093
X 10 8 0 5.25 4.25 0.25 2689 0.28904 0.7024557968223368
X 10 8 1 5.25 4.25 0.75 2690 0.2671 0.8839452493368045
X 10 8 2 5.25 4.25 1.25 2691 0.2503 0.9290183963032455
X 10 8 3 5.25 4.25 1.75 2692 0.283 0.7639243162663663
X 10 8 4 5.25 4.25 2.25 2693 0.3236399999999999 0.5259116174212737
X 10 8 5 5.25 4.25 2.75 2694 0.384 0.194189431665108
X 10 8 6 5.25 4.25 3.25 2695 0.44432 -0.2144133919229178
X 10 8 7 5.25 4.25 3.75 2696 0.50362 -0.6230951555584008
X 10 8 8 5.25 4.25 4.25 2697 0.53606 -0.9563944561039536
X 10 8 9 5.25 4.25 4.75 2698 0.5691000000000001 -1.198147702254999
X 10 8 10 5.25 4.25 5.25 2699 0.57622 -1.266392392170734
X 10 8 11 5.25 4.25 5.75 2700 0.5533600000000001 -1.171305883819462
X 10 8 12 5.25 4.25 6.25 2701 0.51322 -0.9060967016500424
X 10 8 13 5.25 4.25 6.75 2702 0.46422 -0.5085680172668557
X 10 8 14 5.25 4.25 7.25 2703 0.40082 -0.05153946557025001
X 10 8 15 5.25 4.25 7.75 2704 0.33268 0.3798074209021877
X 10 9 0 5.25 4.75 0.25 2705 0.24854 0.9096854619797905
X 10 9 1 5.25 4.75 0.75 2706 0.23894 1.062403989811258
X 10 9 2 5.25 4.75 1.25 2707 0.23132 1.066158928170724
X 10 9 3 5.25 4.75 1.75 2708 0.2633 0.8587676858320898
X 10 9 4 5.25 4.75 2.25 2709 0.30146 0.5965913796425154
X 10 9 5 5.25 4.75 2.75 2710 0.36192 0.268426431071857
X 10 9 6 5.25 4.75 3.25 2711 0.4352800000000001 -0.1443139783836381
X 10 9 7 5.25 4.75 3.75 2712 0.49348 -0.5360032556331906
X 10 9 8 5.25 4.75 4.25 2713 0.5284 -0.8408722425648611
X 10 9 9 5.25 4.75 4.75 2714 0.5431800000000001 -1.026794070489432
X 10 9 10 5.25 4.75 5.25 2715 0.54362 -1.057955380623949
X 10 9 11 5.25 4.75 5.75 2716 0.52256 -0.9354753241168799
X 10 9 12 5.25 4.75 6.25 2717 0.4854800000000001 -0.6559206676341849
X 10 9 13 5.25 4.75 6.75 2718 0.42188 -0.2519170744747375
X 10 9 14 5.25 4.75 7.25 2719 0.3541199999999999 0.203994641685549
X 10 9 15 5.25 4.75 7.75 2720 0.29792 0.6141292921280691
X 10 10 0 5.25 5.25 0.25 2721 0.22628 1.08205327402827
X 10 10 1 5.25 5.25 0.75 2722 0.2116 1.198644744216042
X 10 10 2 5.25 5.25 1.25 2723 0.2192 1.138341463054225
X 10 10 3 5.25 5.25 1.75 2724 0.2592 0.8835936799338954
X 10 10 4 5.25 5.25 2.25 2725 0.29962 0.6126573504874531
X 10 10 5 5.25 5.25 2.75 2726 0.3510199999999999 0.3240903489608049
X 10 10 6 5.25 5.25 3.25 2727 0.41312 -0.06028990160636058
X 10 10 7 5.25 5.25 3.75 2728 0.4769 -0.426385476538317
X 10 10 8 5.25 5.25 4.25 2729 0.51856 -0.6900010846802929
X 10 10 9 5.25 5.25 4.75 2730 0.5206599999999999 -0.8237958188270024
X 10 10 10 5.25 5.25 5.25 2731 0.49974 -0.8184731427980776
X 10 10 11 5.25 5.25 5.75 2732 0.48886 -0.6769259788451375
X 10 10 12 5.25 5.25 6.25 2733 0.4510999999999999 -0.3857008950147452
X 10 10 13 5.25 5.25 6.75 2734 0.38964 0.01402785978917711
X 10 10 14 5.25 5.25 7.25 2735 0.31802 0.4414228800524774
X 10 10 15 5.25 5.25 7.75 2736 0.25722 0.8176962953332878
X 10 11 0 5.25 5.75 0.25 2737 0.19852 1.171052192445116
X 10 11 1 5.25 5.75 0.75 2738 0.19778 1.248642768471966
X 10 11 2 5.25 5.75 1.25 2739 0.2168 1.113763294617323
X 10 11 3 5.25 5.75 1.75 2740 0.2513 0.8424232630609296
X 10 11 4 5.25 5.75 2.25 2741 0.29022 0.5713452327506952
X 10 11 5 5.25 5.75 2.75 2742 0.3397399999999999 0.3320585520716565
X 10 11 6 5.25 5.75 3.25 2743 0.3912 0.02469990897885774
X 10 11 7 5.25 5.75 3.75 2744 0.46074 -0.2944971901007683
X 10 11 8 5.25 5.75 4.25 2745 0.47924 -0.5116116048616424
X 10 11 9 5.25 5.75 4.75 2746 0.481 -0.6224214253577055
X 10 11 10 5.25 5.75 5.25 2747 0.477 -0.593429350868753
X 10 11 11 5.25 5.75 5.75 2748 0.45766 -0.4364630472164753
X 10 11 12 5.25 5.75 6.25 2749 0.3992 -0.1396465046957187
X 10 11 13 5.25 5.75 6.75 2750 0.3332 0.2369900391264218
X 10 11 14 5.25 5.75 7.25 2751 0.28166 0.621772052861634
X 10 11 15 5.25 5.75 7.75 2752 0.22686 0.9509777140149704
X 10 12 0 5.25 6.25 0.25 2753 0.2053 1.164189422411261
X 10 12 1 5.25 6.25 0.75 2754 0.21002 1.172437942223686
X 10 12 2 5.25 6.25 1.25 2755 0.21828 0.9879533019422276
X 10 12 3 5.25 6.25 1.75 2756 0.25964 0.7377473140651054
X 10 12 4 5.25 6.25 2.25 2757 0.3098 0.4832725591734605
X 10 12 5 5.25 6.25 2.75 2758 0.33776 0.2750395616406144
X 10 12 6 5.25 6.25 3.25 2759 0.39556 0.08143614588235371
X 10 12 7 5.25 6.25 3.75 2760 0.43868 -0.1541912165514023
X 10 12 8 5.25 6.25 4.25 2761 0.45256 -0.3154084414264884
X 10 12 9 5.25 6.25 4.75 2762 0.46238 -0.4184088985418621
X 10 12 10 5.25 6.25 5.25 2763 0.46172 -0.3806058457057633
X 10 12 11 5.25 6.25 5.75 2764 0.41464 -0.2183543766614341
X 10 12 12 5.25 6.25 6.25 2765 0.3752 0.0618335419021656
X 10 12 13 5.25 6.25 6.75 2766 0.3121 0.3958863769360602
X 10 12 14 5.25 6.25 7.25 2767 0.26982 0.723424870697051
X 10 12 15 5.25 6.25 7.75 2768 0.23376 0.9935362108078155
X 10 13 0 5.25 6.75 0.25 2769 0.21872 1.039058425904038
X 10 13 1 5.25 6.75 0.75 2770 0.22066 0.9641281153956818
X 10 13 2 5.25 6.75 1.25 2771 0.24678 0.7976316389578824
X 10 13 3 5.25 6.75 1.75 2772 0.28512 0.5825569713185862
X 10 13 4 5.25 6.75 2.25 2773 0.32636 0.3624971773451637
X 10 13 5 5.25 6.75 2.75 2774 0.3614 0.1889735400755478
X 10 13 6 5.25 6.75 3.25 2775 0.4062199999999999 0.05496931835981239
X 10 13 7 5.25 6.75 3.75 2776 0.4151 -0.03009745465939269
X 10 13 8 5.25 6.75 4.25 2777 0.4288 -0.1270179108672813
X 10 13 9 5.25 6.75 4.75 2778 0.45822 -0.2204917310588496
X 10 13 10 5.25 6.75 5.25 2779 0.43726 -0.1963097638909731
X 10 13 11 5.25 6.75 5.75 2780 0.39634 -0.04952314400257809
X 10 13 12 5.25 6.75 6.25 2781 0.3498600000000001 0.1920875813422426
X 10 13 13 5.25 6.75 6.75 2782 0.30352 0.4701491410216198
X 10 13 14 5.25 6.75 7.25 2783 0.27108 0.7354201847607498
X 10 13 15 5.25 6.75 7.75 2784 0.2376 0.9465336374355574
X 10 14 0 5.25 7.25 0.25 2785 0.26598 0.7820133045685959
X 10 14 1 5.25 7.25 0.75 2786 0.2595 0.7115015977343991
X 10 14 2 5.25 7.25 1.25 2787 0.28714 0.5759533224377518
X 10 14 3 5.25 7.25 1.75 2788 0.31644 0.4024728991349629
X 10 14 4 5.25 7.25 2.25 2789 0.34204 0.2276454554331373
X 10 14 5 5.25 7.25 2.75 2790 0.3798 0.09562544512524231
X 10 14 6 5.25 7.25 3.25 2791 0.40216 0.00944962215235557
X 10 14 7 5.25 7.25 3.75 2792 0.40506 -0.0002604304899525052
X 10 14 8 5.25 7.25 4.25 2793 0.4291999999999999 -0.006548352893124038
X 10 14 9 5.25 7.25 4.75 2794 0.41816 -0.0439493289513911
X 10 14 10 5.25 7.25 5.25 2795 0.41568 -0.05481955217222173
X 10 14 11 5.25 7.25 5.75 2796 0.40184 0.0584821844948669
X 10 14 12 5.25 7.25 6.25 2797 0.35382 0.2506622785426745
X 10 14 13 5.25 7.25 6.75 2798 0.3157200000000001 0.4687649150960683
X 10 14 14 5.25 7.25 7.25 2799 0.28256 0.6599996831266608
X 10 14 15 5.25 7.25 7.75 2800 0.25756 0.7711214181902156
X 10 15 0 5.25 7.75 0.25 2801 0.29934 0.5140614322649004
X 10 15 1 5.25 7.75 0.75 2802 0.30196 0.4589545991957775
X 10 15 2 5.25 7.75 1.25 2803 0.31516 0.3552472817428914
X 10 15 3 5.25 7.75 1.75 2804 0.35042 0.2238278047749699
X 10 15 4 5.25 7.75 2.25 2805 0.37804 0.09922539827013843
X 10 15 5 5.25 7.75 2.75 2806 0.4019800000000001 0.01719131926562495
X 10 15 6 5.25 7.75 3.25 2807 0.4023 -2.212127832235885e-05
X 10 15 7 5.25 7.75 3.75 2808 0.40884 -0.0006090765914300319
X 10 15 8 5.25 7.75 4.25 2809 0.44082 -0.008794989803459628
X 10 15 9 5.25 7.75 4.75 2810 0.41646 -0.02534294824386317
X 10 15 10 5.25 7.75 5.25 2811 0.43092 -0.03635867559049222
X 10 15 11 5.25 7.75 5.75 2812 0.4072 0.02224699492437724
X 10 15 12 5.25 7.75 6.25 2813 0.3699 0.1648936026101535
X 10 15 13 5.25 7.75 6.75 2814 0.35166 0.3172383089862654
X 10 15 14 5.25 7.75 7.25 2815 0.31102 0.4422141825512094
X 10 15 15 5.25 7.75 7.75 2816 0.3018399999999999 0.5102719639831474
X 11 0 0 5.75 0.25 0.25 2817 0.28866 0.4982130477842622
X 11 0 1 5.75 0.25 0.75 2818 0.31248 0.4308084892198908
X 11 0 2 5.75 0.25 1.25 2819 0.31936 0.3218589681104587
X 11 0 3 5.75 0.25 1.75 2820 0.34512 0.1922065726068516
X 11 0 4 5.75 0.25 2.25 2821 0.38578 0.06416446020754445
X 11 0 5 5.75 0.25 2.75 2822 0.3876600000000001 0.001968170937472986
X 11 0 6 5.75 0.25 3.25 2823 0.39826 0
X 11 0 7 5.75 0.25 3.75 2824 0.41614 0.001233131726483
X 11 0 8 5.75 0.25 4.25 2825 0.41064 0.003351308539611969
X 11 0 9 5.75 0.25 4.75 2826 0.41298 0.001934954397912465
X 11 0 10 5.75 0.25 5.25 2827 0.40662 0.01481298134704966
X 11 0 11 5.75 0.25 5.75 2828 0.39102 0.08129770728736337
X 11 0 12 5.75 0.25 6.25 2829 0.36446 0.2080431546481641
X 11 0 13 5.75 0.25 6.75 2830 0.32528 0.3506218796909928
X 11 0 14 5.75 0.25 7.25 2831 0.3018 0.4594439845996901
X 11 0 15 5.75 0.25 7.75 2832 0.2996200000000001 0.5095315646896731
X 11 1 0 5.75 0.75 0.25 2833 0.33898 0.2578591166646463
X 11 1 1 5.75 0.75 0.75 2834 0.33328 0.2004594550549804
X 11 1 2 5.75 0.75 1.25 2835 0.3556199999999999 0.1230124621868614
X 11 1 3 5.75 0.75 1.75 2836 0.3587599999999999 0.0499498217398581
X 11 1 4 5.75 0.75 2.25 2837 0.39418 0.006928512318847264
X 11 1 5 5.75 0.75 2.75 2838 0.40696 0
X 11 1 6 5.75 0.75 3.25 2839 0.41974 0.0002172335793718248
X 11 1 7 5.75 0.75 3.75 2840 0.42948 -7.983168655638058e-05
X 11 1 8 5.75 0.75 4.25 2841 0.421 -0.0103947062823033
X 11 1 9 5.75 0.75 4.75 2842 0.43114 -0.02029651627086872
X 11 1 10 5.75 0.75 5.25 2843 0.43392 -0.01656648850050519
X 11 1 11 5.75 0.75 5.75 2844 0.4115200000000001 0.02234388937272931
X 11 1 12 5.75 0.75 6.25 2845 0.39012 0.0927888262876479
X 11 1 13 5.75 0.75 6.75 2846 0.3669 0.1733308715219206
X 11 1 14 5.75 0.75 7.25 2847 0.34832 0.2447702685553707
X 11 1 15 5.75 0.75 7.75 2848 0.33308 0.2785977412277719
X 11 2 0 5.75 1.25 0.25 2849 0.36882 0.1432594575837862
X 11 2 1 5.75 1.25 0.75 2850 0.3744999999999999 0.0935165999365951
X 11 2 2 5.75 1.25 1.25 2851 0.38136 0.04082879096714608
X 11 2 3 5.75 1.25 1.75 2852 0.38142 0.007935777192789019
X 11 2 4 5.75 1.25 2.25 2853 0.39246 0
X 11 2 5 5.75 1.25 2.75 2854 0.40766 0
X 11 2 6 5.75 1.25 3.25 2855 0.41874 2.980443712996442e-06
X 11 2 7 5.75 1.25 3.75 2856 0.4245 -0.01091037885023314
X 11 2 8 5.75 1.25 4.25 2857 0.4373 -0.03677196397331942
X 11 2 9 5.75 1.25 4.75 2858 0.434 -0.0767145214936025
X 11 2 10 5.75 1.25 5.25 2859 0.44476 -0.1118997070816019
X 11 2 11 5.75 1.25 5.75 2860 0.4215 -0.1091783398780648
X 11 2 12 5.75 1.25 6.25 2861 0.40244 -0.05131377143475765
X 11 2 13 5.75 1.25 6.75 2862 0.39746 0.03973436516841822
X 11 2 14 5.75 1.25 7.25 2863 0.3667 0.1247586131234813
X 11 2 15 5.75 1.25 7.75 2864 0.3559 0.164734529958763
X 11 3 0 5.75 1.75 0.25 2865 0.3573800000000001 0.2154827327884913
X 11 3 1 5.75 1.75 0.75 2866 0.3554999999999999 0.1637858826193659
X 11 3 2 5.75 1.75 1.25 2867 0.37114 0.0997220039844738
X 11 3 3 5.75 1.75 1.75 2868 0.3881 0.03966636970567559
X 11 3 4 5.75 1.75 2.25 2869 0.39388 0.004884316255465862
X 11 3 5 5.75 1.75 2.75 2870 0.40954 0
X 11 3 6 5.75 1.75 3.25 2871 0.4189000000000001 -0.002302961394539169
X 11 3 7 5.75 1.75 3.75 2872 0.42332 -0.03478422874646463
X 11 3 8 5.75 1.75 4.25 2873 0.46298 -0.1371712189989272
X 11 3 9 5.75 1.75 4.75 2874 0.46704 -0.2475762792990052
X 11 3 10 5.75 1.75 5.25 2875 0.47062 -0.3123266914552199
X 11 3 11 5.75 1.75 5.75 2876 0.4651 -0.3167643176300882
X 11 3 12 5.75 1.75 6.25 2877 0.46814 -0.2525834391933384
X 11 3 13 5.75 1.75 6.75 2878 0.42468 -0.1174354683200442
X 11 3 14 5.75 1.75 7.25 2879 0.39618 0.04120371606989107
X 11 3 15 5.75 1.75 7.75 2880 0.36798 0.1755719840989382
X 11 4 0 5.75 2.25 0.25 2881 0.36172 0.3513120043795288
X 11 4 1 5.75 2.25 0.75 2882 0.35428 0.3500626096344212
X 11 4 2 5.75 2.25 1.25 2883 0.35558 0.2697538777487668
X 11 4 3 5.75 2.25 1.75 2884 0.35856 0.1778347477843281
X 11 4 4 5.75 2.25 2.25 2885 0.38952 0.08702880056563471
X 11 4 5 5.75 2.25 2.75 2886 0.41696 0.01372639281376788
X 11 4 6 5.75 2.25 3.25 2887 0.42596 -0.0108408397836353
X 11 4 7 5.75 2.25 3.75 2888 0.43952 -0.1254426234491204
X 11 4 8 5.75 2.25 4.25 2889 0.47574 -0.2924773818794045
X 11 4 9 5.75 2.25 4.75 2890 0.4872400000000001 -0.4351815797194432
X 11 4 10 5.75 2.25 5.25 2891 0.48624 -0.5220394145927368
X 11 4 11 5.75 2.25 5.75 2892 0.48304 -0.4998518925183431
X 11 4 12 5.75 2.25 6.25 2893 0.44918 -0.3593320241957571
X 11 4 13 5.75 2.25 6.75 2894 0.4228 -0.1660350724986024
X 11 4 14 5.75 2.25 7.25 2895 0.4087 0.03874302784455814
X 11 4 15 5.75 2.25 7.75 2896 0.36356 0.2222570110062742
X 11 5 0 5.75 2.75 0.25 2897 0.31134 0.5151809526196109
X 11 5 1 5.75 2.75 0.75 2898 0.3160600000000001 0.5792453024484197
X 11 5 2 5.75 2.75 1.25 2899 0.32008 0.4902259443295465
X 11 5 3 5.75 2.75 1.75 2900 0.33608 0.3583578689979523
X 11 5 4 5.75 2.75 2.25 2901 0.36378 0.223564942896737
X 11 5 5 5.75 2.75 2.75 2902 0.3918 0.09921249912899874
X 11 5 6 5.75 2.75 3.25 2903 0.43498 -0.04457925610953503
X 11 5 7 5.75 2.75 3.75 2904 0.46048 -0.2331963379943677
X 11 5 8 5.75 2.75 4.25 2905 0.48258 -0.430232379461929
X 11 5 9 5.75 2.75 4.75 2906 0.50092 -0.6015664762584652
X 11 5 10 5.75 2.75 5.25 2907 0.50554 -0.6771540609322566
X 11 5 11 5.75 2.75 5.75 2908 0.49034 -0.5961455277088361
X 11 5 12 5.75 2.75 6.25 2909 0.45324 -0.4118795916914237
X 11 5 13 5.75 2.75 6.75 2910 0.42106 -0.1624268300646949
X 11 5 14 5.75 2.75 7.25 2911 0.38508 0.1042938569266958
X 11 5 15 5.75 2.75 7.75 2912 0.34182 0.3436962324116544
X 11 6 0 5.75 3.25 0.25 2913 0.28156 0.7298082111098647
X 11 6 1 5.75 3.25 0.75 2914 0.2703 0.8231446342160248
X 11 6 2 5.75 3.25 1.25 2915 0.29228 0.7445046825830601
X 11 6 3 5.75 3.25 1.75 2916 0.30424 0.5675181504025681
X 11 6 4 5.75 3.25 2.25 2917 0.34042 0.3817006242216668
X 11 6 5 5.75 3.25 2.75 2918 0.38484 0.2047642325177486
X 11 6 6 5.75 3.25 3.25 2919 0.4223000000000001 -0.0440962209333667
X 11 6 7 5.75 3.25 3.75 2920 0.46006 -0.3112851792589779
X 11 6 8 5.75 3.25 4.25 2921 0.49426 -0.5297013349883083
X 11 6 9 5.75 3.25 4.75 2922 0.51732 -0.7101851094114149
X 11 6 10 5.75 3.25 5.25 2923 0.52466 -0.7357751397410359
X 11 6 11 5.75 3.25 5.75 2924 0.4962799999999999 -0.6256800874770299
X 11 6 12 5.75 3.25 6.25 2925 0.45418 -0.3990261054944206
X 11 6 13 5.75 3.25 6.75 2926 0.42016 -0.09373170187444359
X 11 6 14 5.75 3.25 7.25 2927 0.3705599999999999 0.2340946042972871
X 11 6 15 5.75 3.25 7.75 2928 0.31954 0.5268105693254804
X 11 7 0 5.75 3.75 0.25 2929 0.24646 0.9780115162451064
X 11 7 1 5.75 3.75 0.75 2930 0.22592 1.08052430789067
X 11 7 2 5.75 3.75 1.25 2931 0.24016 1.002115287512326
X 11 7 3 5.75 3.75 1.75 2932 0.28538 0.7801070344960905
X 11 7 4 5.75 3.75 2.25 2933 0.31038 0.5420640779612895
X 11 7 5 5.75 3.75 2.75 2934 0.3625 0.3085616370306109
X 11 7 6 5.75 3.75 3.25 2935 0.42128 -0.009872687472416007
X 11 7 7 5.75 3.75 3.75 2936 0.4686 -0.3358270327971449
X 11 7 8 5.75 3.75 4.25 2937 0.49314 -0.576830020444986
X 11 7 9 5.75 3.75 4.75 2938 0.5043 -0.7265584754639698
X 11 7 10 5.75 3.75 5.25 2939 0.50708 -0.7193257886500009
X 11 7 11 5.75 3.75 5.75 2940 0.49298 -0.5794690544357667
X 11 7 12 5.75 3.75 6.25 2941 0.45712 -0.3122959356228704
X 11 7 13 5.75 3.75 6.75 2942 0.40292 0.042622614622932
X 11 7 14 5.75 3.75 7.25 2943 0.33538 0.4224998061312454
X 11 7 15 5.75 3.75 7.75 2944 0.2803 0.7545891023917174
X 11 8 0 5.75 4.25 0.25 2945 0.20806 1.253857808843864
X 11 8 1 5.75 4.25 0.75 2946 0.17912 1.340321459142
X 11 8 2 5.75 4.25 1.25 2947 0.21052 1.227543053691698
X 11 8 3 5.75 4.25 1.75 2948 0.23798 0.9613769607589087
X 11 8 4 5.75 4.25 2.25 2949 0.27802 0.6786632004132098
X 11 8 5 5.75 4.25 2.75 2950 0.33792 0.4025247176319738
X 11 8 6 5.75 4.25 3.25 2951 0.4053 0.04514152692877113
X 11 8 7 5.75 4.25 3.75 2952 0.44404 -0.3114175836188657
X 11 8 8 5.75 4.25 4.25 2953 0.5011599999999999 -0.5673011526971354
X 11 8 9 5.75 4.25 4.75 2954 0.49352 -0.667397588409137
X 11 8 10 5.75 4.25 5.25 2955 0.48744 -0.6343823315108581
X 11 8 11 5.75 4.25 5.75 2956 0.46888 -0.4650456489332693
X 11 8 12 5.75 4.25 6.25 2957 0.4197400000000001 -0.1627166253597017
X 11 8 13 5.75 4.25 6.75 2958 0.35922 0.2381168899985273
X 11 8 14 5.75 4.25 7.25 2959 0.2909 0.6627726925984212
X 11 8 15 5.75 4.25 7.75 2960 0.23726 1.020620166385702
X 11 9 0 5.75 4.75 0.25 2961 0.17944 1.51936666619012
X 11 9 1 5.75 4.75 0.75 2962 0.1578 1.582083211282951
X 11 9 2 5.75 4.75 1.25 2963 0.17814 1.411660708945528
X 11 9 3 5.75 4.75 1.75 2964 0.22274 1.089838347459801
X 11 9 4 5.75 4.75 2.25 2965 0.26948 0.7656523748964152
X 11 9 5 5.75 4.75 2.75 2966 0.3357 0.4687882521275329
X 11 9 6 5.75 4.75 3.25 2967 0.3937 0.1122893315090824
X 11 9 7 5.75 4.75 3.75 2968 0.44572 -0.2500802747858767
X 11 9 8 5.75 4.75 4.25 2969 0.46774 -0.5070932253733635
X 11 9 9 5.75 4.75 4.75 2970 0.49622 -0.566937434400076
X 11 9 10 5.75 4.75 5.25 2971 0.49266 -0.5032536904938926
X 11 9 11 5.75 4.75 5.75 2972 0.45746 -0.3057263181588291
X 11 9 12 5.75 4.75 6.25 2973 0.38688 0.03972185511084479
X 11 9 13 5.75 4.75 6.75 2974 0.31098 0.4763194516306236
X 11 9 14 5.75 4.75 7.25 2975 0.25226 0.9193547846932519
X 11 9 15 5.75 4.75 7.75 2976 0.20294 1.288078862520311
X 11 10 0 5.75 5.25 0.25 2977 0.1499 1.704785232783731
X 11 10 1 5.75 5.25 0.75 2978 0.14066 1.730154538205696
X 11 10 2 5.75 5.25 1.25 2979 0.15646 1.50158517887514
X 11 10 3 5.75 5.25 1.75 2980 0.20044 1.156085492962657
X 11 10 4 5.75 5.25 2.25 2981 0.2637 0.7951037537668272
X 11 10 5 5.75 5.25 2.75 2982 0.3167199999999999 0.4903721012340965
X 11 10 6 5.75 5.25 3.25 2983 0.36782 0.1762355031732753
X 11 10 7 5.75 5.25 3.75 2984 0.4316400000000001 -0.1669621707340657
X 11 10 8 5.75 5.25 4.25 2985 0.4598 -0.4065633566959032
X 11 10 9 5.75 5.25 4.75 2986 0.46924 -0.4438645071145703
X 11 10 10 5.75 5.25 5.25 2987 0.4527 -0.3601551812725245
X 11 10 11 5.75 5.25 5.75 2988 0.4088399999999999 -0.1256708037703152
X 11 10 12 5.75 5.25 6.25 2989 0.3509 0.2446254541508913
X 11 10 13 5.75 5.25 6.75 2990 0.28646 0.6885650848775053
X 11 10 14 5.75 5.25 7.25 2991 0.21944 1.131401490229714
X 11 10 15 5.75 5.25 7.75 2992 0.1732 1.491639985105668
X 11 11 0 5.75 5.75 0.25 2993 0.12922 1.774908297057146
X 11 11 1 5.75 5.75 0.75 2994 0.1362 1.731769073994041
X 11 11 2 5.75 5.75 1.25 2995 0.15482 1.473094477216188
X 11 11 3 5.75 5.75 1.75 2996 0.20512 1.129539920030742
X 11 11 4 5.75 5.75 2.25 2997 0.25864 0.7676339562471994
X 11 11 5 5.75 5.75 2.75 2998 0.31996 0.4555007068957829
X 11 11 6 5.75 5.75 3.25 2999 0.3612 0.2076681926093396
X 11 11 7 5.75 5.75 3.75 3000 0.40876 -0.07673680448866921
X 11 11 8 5.75 5.75 4.25 3001 0.44146 -0.2789153437102935
X 11 11 9 5.75 5.75 4.75 3002 0.45992 -0.3025795427263919
X 11 11 10 5.75 5.75 5.25 3003 0.4328 -0.1984080868889749
X 11 11 11 5.75 5.75 5.75 3004 0.3869 0.05479290115910863
X 11 11 12 5.75 5.75 6.25 3005 0.3091 0.4204438158749327
X 11 11 13 5.75 5.75 6.75 3006 0.25142 0.8480960576474552
X 11 11 14 5.75 5.75 7.25 3007 0.19458 1.265473619876452
X 11 11 15 5.75 5.75 7.75 3008 0.14838 1.594740149936766
X 11 12 0 5.75 6.25 0.25 3009 0.13256 1.692456685495683
X 11 12 1 5.75 6.25 0.75 3010 0.1495 1.581805648749849
X 11 12 2 5.75 6.25 1.25 3011 0.17038 1.333880037056749
X 11 12 3 5.75 6.25 1.75 3012 0.21332 1.013499248830615
X 11 12 4 5.75 6.25 2.25 3013 0.27974 0.6780934689480497
X 11 12 5 5.75 6.25 2.75 3014 0.3257200000000001 0.3814979309190522
X 11 12 6 5.75 6.25 3.25 3015 0.37368 0.1751337869623129
X 11 12 7 5.75 6.25 3.75 3016 0.39854 -0.002286480737174816
X 11 12 8 5.75 6.25 4.25 3017 0.41384 -0.1376679101171033
X 11 12 9 5.75 6.25 4.75 3018 0.4294600000000001 -0.1647917502144274
X 11 12 10 5.75 6.25 5.25 3019 0.41878 -0.04592234348355487
X 11 12 11 5.75 6.25 5.75 3020 0.36472 0.2010015157525096
X 11 12 12 5.75 6.25 6.25 3021 0.29436 0.5405147288564294
X 11 12 13 5.75 6.25 6.75 3022 0.23602 0.9279117672045795
X 11 12 14 5.75 6.25 7.25 3023 0.19112 1.297166984782833
X 11 12 15 5.75 6.25 7.75 3024 0.1499 1.579041883240049
X 11 13 0 5.75 6.75 0.25 3025 0.15436 1.443607600149635
X 11 13 1 5.75 6.75 0.75 3026 0.16796 1.330661605479946
X 11 13 2 5.75 6.75 1.25 3027 0.1902 1.111316155415552
X 11 13 3 5.75 6.75 1.75 3028 0.2382 0.8307715972167382
X 11 13 4 5.75 6.75 2.25 3029 0.29262 0.5391542490589388
X 11 13 5 5.75 6.75 2.75 3030 0.34378 0.281250780427232
X 11 13 6 5.75 6.75 3.25 3031 0.38118 0.1064260044098743
X 11 13 7 5.75 6.75 3.75 3032 0.40638 0.006999933897704582
X 11 13 8 5.75 6.75 4.25 3033 0.40528 -0.01961747679904348
X 11 13 9 5.75 6.75 4.75 3034 0.41178 -0.04345900430059412
X 11 13 10 5.75 6.75 5.25 3035 0.39024 0.07229206931349121
X 11 13 11 5.75 6.75 5.75 3036 0.33156 0.294020610306622
X 11 13 12 5.75 6.75 6.25 3037 0.29532 0.5898578649383384
X 11 13 13 5.75 6.75 6.75 3038 0.23366 0.9201021271552028
X 11 13 14 5.75 6.75 7.25 3039 0.19902 1.223180169376175
X 11 13 15 5.75 6.75 7.75 3040 0.16638 1.417030662815009
X 11 14 0 5.75 7.25 0.25 3041 0.19596 1.122703928484543
X 11 14 1 5.75 7.25 0.75 3042 0.2163 1.026225119022163
X 11 14 2 5.75 7.25 1.25 3043 0.24384 0.8437909873891818
X 11 14 3 5.75 7.25 1.75 3044 0.26628 0.6129519161199888
X 11 14 4 5.75 7.25 2.25 3045 0.3133 0.3748806812672174
X 11 14 5 5.75 7.25 2.75 3046 0.36622 0.1667003447115515
X 11 14 6 5.75 7.25 3.25 3047 0.39908 0.03515474984412022
X 11 14 7 5.75 7.25 3.75 3048 0.39914 7.440078965650439e-07
X 11 14 8 5.75 7.25 4.25 3049 0.4142400000000001 1.462004166341564e-05
X 11 14 9 5.75 7.25 4.75 3050 0.39492 0.004567225142941081
X 11 14 10 5.75 7.25 5.25 3051 0.37754 0.1093103872534541
X 11 14 11 5.75 7.25 5.75 3052 0.3438999999999999 0.3116648868374093
X 11 14 12 5.75 7.25 6.25 3053 0.30684 0.5519010473473607
X 11 14 13 5.75 7.25 6.75 3054 0.25754 0.7974668912891008
X 11 14 14 5.75 7.25 7.25 3055 0.2234 0.9986541837699117
X 11 14 15 5.75 7.25 7.75 3056 0.20368 1.112859192561447
X 11 15 0 5.75 7.75 0.25 3057 0.24814 0.7942377163991796
X 11 15 1 5.75 7.75 0.75 3058 0.2603799999999999 0.7133080445640032
X 11 15 2 5.75 7.75 1.25 3059 0.28898 0.5702089278359254
X 11 15 3 5.75 7.75 1.75 3060 0.31484 0.391803631720788
X 11 15 4 5.75 7.75 2.25 3061 0.35344 0.209287254251066
X 11 15 5 5.75 7.75 2.75 3062 0.39314 0.05595305400026301
X 11 15 6 5.75 7.75 3.25 3063 0.3967799999999999 0.0009616332262164103
X 11 15 7 5.75 7.75 3.75 3064 0.40892 9.686941662661195e-08
X 11 15 8 5.75 7.75 4.25 3065 0.4160200000000001 0.001513817136945321
X 11 15 9 5.75 7.75 4.75 3066 0.4017999999999999 0.006505785882410287
X 11 15 10 5.75 7.75 5.25 3067 0.40362 0.04849667265552608
X 11 15 11 5.75 7.75 5.75 3068 0.35854 0.1972047009419303
X 11 15 12 5.75 7.75 6.25 3069 0.32804 0.3847589599290235
X 11 15 13 5.75 7.75 6.75 3070 0.28964 0.5684560339632684
X 11 15 14 5.75 7.75 7.25 3071 0.26258 0.713972227997221
X 11 15 15 5.75 7.75 7.75 3072 0.24698 0.7948103794511374
X 12 0 0 6.25 0.25 0.25 3073 0.2556 0.7436984978865232
X 12 0 1 6.25 0.25 0.75 3074 0.26184 0.6466916158567648
X 12 0 2 6.25 0.25 1.25 3075 0.29298 0.4977950429178579
X 12 0 3 6.25 0.25 1.75 3076 0.3268 0.325563930061587
X 12 0 4 6.25 0.25 2.25 3077 0.35306 0.1554486224409078
X 12 0 5 6.25 0.25 2.75 3078 0.38274 0.03171361421672908
X 12 0 6 6.25 0.25 3.25 3079 0.39282 0.0003271406808723656
X 12 0 7 6.25 0.25 3.75 3080 0.39488 0.005983379322229183
X 12 0 8 6.25 0.25 4.25 3081 0.4088600000000001 0.01914241675178803
X 12 0 9 6.25 0.25 4.75 3082 0.39314 0.04686399290727733
X 12 0 10 6.25 0.25 5.25 3083 0.37524 0.1304866263030121
X 12 0 11 6.25 0.25 5.75 3084 0.3453 0.2558736331271237
X 12 0 12 6.25 0.25 6.25 3085 0.31452 0.4336370212347036
X 12 0 13 6.25 0.25 6.75 3086 0.27814 0.600698201419223
X 12 0 14 6.25 0.25 7.25 3087 0.25158 0.7197121034966663
X 12 0 15 6.25 0.25 7.75 3088 0.25216 0.7700431942800114
X 12 1 0 6.25 0.75 0.25 3089 0.304 0.4546571652148741
X 12 1 1 6.25 0.75 0.75 3090 0.31486 0.3664581810071886
X 12 1 2 6.25 0.75 1.25 3091 0.32862 0.2512529009748337
X 12 1 3 6.25 0.75 1.75 3092 0.35096 0.1373223035142378
X 12 1 4 6.25 0.75 2.25 3093 0.37852 0.0518582980809181
X 12 1 5 6.25 0.75 2.75 3094 0.3935999999999999 0.00504122069230978
X 12 1 6 6.25 0.75 3.25 3095 0.39758 0.002523014176670314
X 12 1 7 6.25 0.75 3.75 3096 0.40746 0.01412766657857122
X 12 1 8 6.25 0.75 4.25 3097 0.41414 0.03728078876081113
X 12 1 9 6.25 0.75 4.75 3098 0.4121 0.07209351773788304
X 12 1 10 6.25 0.75 5.25 3099 0.3881 0.1395566955650999
X 12 1 11 6.25 0.75 5.75 3100 0.37224 0.2453410595340861
X 12 1 12 6.25 0.75 6.25 3101 0.33496 0.3478982531799085
X 12 1 13 6.25 0.75 6.75 3102 0.31752 0.4401308742837653
X 12 1 14 6.25 0.75 7.25 3103 0.2966800000000001 0.4976119275216334
X 12 1 15 6.25 0.75 7.75 3104 0.292 0.5018552430043162
X 12 2 0 6.25 1.25 0.25 3105 0.32864 0.297516835116131
X 12 2 1 6.25 1.25 0.75 3106 0.33192 0.2144185265604436
X 12 2 2 6.25 1.25 1.25 3107 0.34626 0.1280025967751867
X 12 2 3 6.25 1.25 1.75 3108 0.37518 0.05637492394710604
X 12 2 4 6.25 1.25 2.25 3109 0.3981 0.01076606171958783
X 12 2 5 6.25 1.25 2.75 3110 0.39394 9.435334604492197e-05
X 12 2 6 6.25 1.25 3.25 3111 0.40674 0.005944074569132707
X 12 2 7 6.25 1.25 3.75 3112 0.4171800000000001 0.0233665007503684
X 12 2 8 6.25 1.25 4.25 3113 0.42148 0.05466679834221708
X 12 2 9 6.25 1.25 4.75 3114 0.4063600000000001 0.09964031871159841
X 12 2 10 6.25 1.25 5.25 3115 0.38902 0.1608804402738779
X 12 2 11 6.25 1.25 5.75 3116 0.35734 0.2486567733357155
X 12 2 12 6.25 1.25 6.25 3117 0.3414000000000001 0.3429136379525847
X 12 2 13 6.25 1.25 6.75 3118 0.32942 0.3980122543006985
X 12 2 14 6.25 1.25 7.25 3119 0.31746 0.4075874550987448
X 12 2 15 6.25 1.25 7.75 3120 0.31336 0.3675428255237529
X 12 3 0 6.25 1.75 0.25 3121 0.32368 0.3763657637644062
X 12 3 1 6.25 1.75 0.75 3122 0.3438 0.2785392749663657
X 12 3 2 6.25 1.75 1.25 3123 0.3478 0.1727675094284567
X 12 3 3 6.25 1.75 1.75 3124 0.37412 0.07416613336298455
X 12 3 4 6.25 1.75 2.25 3125 0.3902 0.0130243819930934
X 12 3 5 6.25 1.75 2.75 3126 0.3999199999999999 0.0004549619670060763
X 12 3 6 6.25 1.75 3.25 3127 0.41994 0.008735181775097375
X 12 3 7 6.25 1.75 3.75 3128 0.40394 0.03050390636671948
X 12 3 8 6.25 1.75 4.25 3129 0.42506 0.06165248521043855
X 12 3 9 6.25 1.75 4.75 3130 0.4154 0.09139558428682415
X 12 3 10 6.25 1.75 5.25 3131 0.40176 0.1264777980600417
X 12 3 11 6.25 1.75 5.75 3132 0.38388 0.1853608657342995
X 12 3 12 6.25 1.75 6.25 3133 0.37012 0.2884827641306967
X 12 3 13 6.25 1.75 6.75 3134 0.34434 0.4091076611879014
X 12 3 14 6.25 1.75 7.25 3135 0.31666 0.4757011155813449
X 12 3 15 6.25 1.75 7.75 3136 0.30434 0.4554064529450796
X 12 4 0 6.25 2.25 0.25 3137 0.30418 0.5432702996751442
X 12 4 1 6.25 2.25 0.75 3138 0.32178 0.4432707857310206
X 12 4 2 6.25 2.25 1.25 3139 0.32278 0.3337405544553629
X 12 4 3 6.25 2.25 1.75 3140 0.35594 0.2234827435469101
X 12 4 4 6.25 2.25 2.25 3141 0.3716200000000001 0.1185065279251484
X 12 4 5 6.25 2.25 2.75 3142 0.3907 0.03061269193788775
X 12 4 6 6.25 2.25 3.25 3143 0.4128999999999999 0.00964947026336623
X 12 4 7 6.25 2.25 3.75 3144 0.4145 0.02792694687643159
X 12 4 8 6.25 2.25 4.25 3145 0.42096 0.01581265331845731
X 12 4 9 6.25 2.25 4.75 3146 0.42232 -0.01316476221072968
X 12 4 10 6.25 2.25 5.25 3147 0.42306 0.002058351562288346
X 12 4 11 6.25 2.25 5.75 3148 0.40546 0.1079647023903226
X 12 4 12 6.25 2.25 6.25 3149 0.3711199999999999 0.2690222178411653
X 12 4 13 6.25 2.25 6.75 3150 0.34506 0.4213519108600702
X 12 4 14 6.25 2.25 7.25 3151 0.31924 0.5380516034901713
X 12 4 15 6.25 2.25 7.75 3152 0.30998 0.589621242050547
X 12 5 0 6.25 2.75 0.25 3153 0.2693 0.8007128993728954
X 12 5 1 6.25 2.75 0.75 3154 0.27772 0.7137148852527863
X 12 5 2 6.25 2.75 1.25 3155 0.2968 0.5779536331526941
X 12 5 3 6.25 2.75 1.75 3156 0.3268800000000001 0.4238583895178329
X 12 5 4 6.25 2.75 2.25 3157 0.3545199999999999 0.2705477456297137
X 12 5 5 6.25 2.75 2.75 3158 0.37718 0.1325176041932437
X 12 5 6 6.25 2.75 3.25 3159 0.4044199999999999 0.03263285051042565
X 12 5 7 6.25 2.75 3.75 3160 0.42188 -0.00897450621198002
X 12 5 8 6.25 2.75 4.25 3161 0.4468800000000001 -0.08469979240578492
X 12 5 9 6.25 2.75 4.75 3162 0.44684 -0.143239191353722
X 12 5 10 6.25 2.75 5.25 3163 0.43484 -0.09735023371041676
X 12 5 11 6.25 2.75 5.75 3164 0.4039199999999999 0.06176785804563684
X 12 5 12 6.25 2.75 6.25 3165 0.38248 0.2667544097788519
X 12 5 13 6.25 2.75 6.75 3166 0.3416999999999999 0.4761075579026197
X 12 5 14 6.25 2.75 7.25 3167 0.30388 0.6506718991395867
X 12 5 15 6.25 2.75 7.75 3168 0.2891 0.7684156632029731
X 12 6 0 6.25 3.25 0.25 3169 0.22672 1.078698698307011
X 12 6 1 6.25 3.25 0.75 3170 0.23348 1.025903367027772
X 12 6 2 6.25 3.25 1.25 3171 0.25614 0.8587065810444319
X 12 6 3 6.25 3.25 1.75 3172 0.29402 0.6554501864648969
X 12 6 4 6.25 3.25 2.25 3173 0.3261600000000001 0.44688688816556
X 12 6 5 6.25 3.25 2.75 3174 0.35858 0.255617350368636
X 12 6 6 6.25 3.25 3.25 3175 0.40304 0.09664689860830339
X 12 6 7 6.25 3.25 3.75 3176 0.42196 -0.06419895872634011
X 12 6 8 6.25 3.25 4.25 3177 0.45036 -0.1772862100072814
X 12 6 9 6.25 3.25 4.75 3178 0.44956 -0.2349323654877285
X 12 6 10 6.25 3.25 5.25 3179 0.44622 -0.1486771776423348
X 12 6 11 6.25 3.25 5.75 3180 0.4009200000000001 0.03381464332056267
X 12 6 12 6.25 3.25 6.25 3181 0.37454 0.283388886068252
X 12 6 13 6.25 3.25 6.75 3182 0.31848 0.5553998314624601
X 12 6 14 6.25 3.25 7.25 3183 0.27328 0.8008619322767208
X 12 6 15 6.25 3.25 7.75 3184 0.24112 0.9822495308234128
X 12 7 0 6.25 3.75 0.25 3185 0.19426 1.388247013839111
X 12 7 1 6.25 3.75 0.75 3186 0.18708 1.348381215310631
X 12 7 2 6.25 3.75 1.25 3187 0.21188 1.14534176935058
X 12 7 3 6.25 3.75 1.75 3188 0.24794 0.8910225472923362
X 12 7 4 6.25 3.75 2.25 3189 0.29764 0.6260057773311593
X 12 7 5 6.25 3.75 2.75 3190 0.33554 0.3809164337334792
X 12 7 6 6.25 3.75 3.25 3191 0.38368 0.1662656197231218
X 12 7 7 6.25 3.75 3.75 3192 0.44138 -0.0826047247169088
X 12 7 8 6.25 3.75 4.25 3193 0.4531600000000001 -0.2416039971337653
X 12 7 9 6.25 3.75 4.75 3194 0.45194 -0.2648261309366181
X 12 7 10 6.25 3.75 5.25 3195 0.44378 -0.1603859380277537
X 12 7 11 6.25 3.75 5.75 3196 0.39936 0.04693157276292938
X 12 7 12 6.25 3.75 6.25 3197 0.36708 0.3384949124438111
X 12 7 13 6.25 3.75 6.75 3198 0.28834 0.6749164627250219
X 12 7 14 6.25 3.75 7.25 3199 0.24094 0.9977207708319271
X 12 7 15 6.25 3.75 7.75 3200 0.19562 1.247719615339331
X 12 8 0 6.25 4.25 0.25 3201 0.13964 1.733003764713308
X 12 8 1 6.25 4.25 0.75 3202 0.13478 1.68406009606408
X 12 8 2 6.25 4.25 1.25 3203 0.17292 1.432399191118607
X 12 8 3 6.25 4.25 1.75 3204 0.21364 1.105985258434284
X 12 8 4 6.25 4.25 2.25 3205 0.26058 0.7789209864580009
X 12 8 5 6.25 4.25 2.75 3206 0.3166 0.4877487076354305
X 12 8 6 6.25 4.25 3.25 3207 0.36594 0.232465085835368
X 12 8 7 6.25 4.25 3.75 3208 0.41368 -0.05690634544485603
X 12 8 8 6.25 4.25 4.25 3209 0.4627 -0.2555784326467279
X 12 8 9 6.25 4.25 4.75 3210 0.44794 -0.2503498170546131
X 12 8 10 6.25 4.25 5.25 3211 0.43398 -0.1293067309021215
X 12 8 11 6.25 4.25 5.75 3212 0.3955600000000001 0.1059560423820753
X 12 8 12 6.25 4.25 6.25 3213 0.3336 0.4589271278553146
X 12 8 13 6.25 4.25 6.75 3214 0.25618 0.8702395454320266
X 12 8 14 6.25 4.25 7.25 3215 0.19548 1.263099121840437
X 12 8 15 6.25 4.25 7.75 3216 0.1626 1.568153990804233
X 12 9 0 6.25 4.75 0.25 3217 0.10958 2.03304493174104
X 12 9 1 6.25 4.75 0.75 3218 0.11672 1.954353380533581
X 12 9 2 6.25 4.75 1.25 3219 0.1468 1.66637971031529
X 12 9 3 6.25 4.75 1.75 3220 0.18378 1.289920231930366
X 12 9 4 6.25 4.75 2.25 3221 0.24334 0.8932588083191791
X 12 9 5 6.25 4.75 2.75 3222 0.30422 0.5555460243662064
X 12 9 6 6.25 4.75 3.25 3223 0.3563 0.2821588417179348
X 12 9 7 6.25 4.75 3.75 3224 0.3953800000000001 -0.007735308997473909
X 12 9 8 6.25 4.75 4.25 3225 0.44532 -0.2214887098708324
X 12 9 9 6.25 4.75 4.75 3226 0.42958 -0.1980476905615271
X 12 9 10 6.25 4.75 5.25 3227 0.41336 -0.05936208806086504
X 12 9 11 6.25 4.75 5.75 3228 0.3710599999999999 0.2285203139393374
X 12 9 12 6.25 4.75 6.25 3229 0.30106 0.6334240006478696
X 12 9 13 6.25 4.75 6.75 3230 0.22532 1.092641807724838
X 12 9 14 6.25 4.75 7.25 3231 0.166 1.529803084255354
X 12 9 15 6.25 4.75 7.75 3232 0.12686 1.86448856321933
X 12 10 0 6.25 5.25 0.25 3233 0.08916000000000002 2.225701893271553
X 12 10 1 6.25 5.25 0.75 3234 0.09976 2.100946703461015
X 12 10 2 6.25 5.25 1.25 3235 0.13546 1.790425134214161
X 12 10 3 6.25 5.25 1.75 3236 0.17042 1.385684800320362
X 12 10 4 6.25 5.25 2.25 3237 0.23258 0.9593779030659952
X 12 10 5 6.25 5.25 2.75 3238 0.29488 0.5788216241509277
X 12 10 6 6.25 5.25 3.25 3239 0.34178 0.3013120692459989
X 12 10 7 6.25 5.25 3.75 3240 0.39826 0.0481352685795136
X 12 10 8 6.25 5.25 4.25 3241 0.41696 -0.1531180551000598
X 12 10 9 6.25 5.25 4.75 3242 0.4169599999999999 -0.1171396992472629
X 12 10 10 6.25 5.25 5.25 3243 0.3864 0.05748557866478336
X 12 10 11 6.25 5.25 5.75 3244 0.32906 0.3794054953838389
X 12 10 12 6.25 5.25 6.25 3245 0.26298 0.8084066763594748
X 12 10 13 6.25 5.25 6.75 3246 0.19758 1.289386336426977
X 12 10 14 6.25 5.25 7.25 3247 0.13612 1.741594493858869
X 12 10 15 6.25 5.25 7.75 3248 0.1081 2.079772321677014
X 12 11 0 6.25 5.75 0.25 3249 0.08282 2.254012618663353
X 12 11 1 6.25 5.75 0.75 3250 0.09055999999999999 2.098744275794691
X 12 11 2 6.25 5.75 1.25 3251 0.12158 1.782347353157042
X 12 11 3 6.25 5.75 1.75 3252 0.16396 1.373770863555868
X 12 11 4 6.25 5.75 2.25 3253 0.22094 0.9462307109799151
X 12 11 5 6.25 5.75 2.75 3254 0.2974 0.5602543462645679
X 12 11 6 6.25 5.75 3.25 3255 0.34456 0.2754668042663992
X 12 11 7 6.25 5.75 3.75 3256 0.39264 0.07762513662734624
X 12 11 8 6.25 5.75 4.25 3257 0.42126 -0.06750101094744464
X 12 11 9 6.25 5.75 4.75 3258 0.4056 -0.01863131250965316
X 12 11 10 6.25 5.75 5.25 3259 0.35662 0.1836264173902046
X 12 11 11 6.25 5.75 5.75 3260 0.3072 0.5125609995437178
X 12 11 12 6.25 5.75 6.25 3261 0.23662 0.941480813454493
X 12 11 13 6.25 5.75 6.75 3262 0.16978 1.415247125401832
X 12 11 14 6.25 5.75 7.25 3263 0.1212 1.85358191923481
X 12 11 15 6.25 5.75 7.75 3264 0.09462 2.168237604602834
X 12 12 0 6.25 6.25 0.25 3265 0.09369999999999999 2.105866070242177
X 12 12 1 6.25 6.25 0.75 3266 0.10394 1.949611833428885
X 12 12 2 6.25 6.25 1.25 3267 0.13436 1.646250148910091
X 12 12 3 6.25 6.25 1.75 3268 0.18008 1.258563266850608
X 12 12 4 6.25 6.25 2.25 3269 0.24196 0.855888523152282
X 12 12 5 6.25 6.25 2.75 3270 0.30852 0.4944848286160212
X 12 12 6 6.25 6.25 3.25 3271 0.35136 0.2205847190284773
X 12 12 7 6.25 6.25 3.75 3272 0.3919 0.05455093289148231
X 12 12 8 6.25 6.25 4.25 3273 0.39728 -0.00840790525008042
X 12 12 9 6.25 6.25 4.75 3274 0.3826 0.07293456565304866
X 12 12 10 6.25 6.25 5.25 3275 0.3412 0.2847728281392473
X 12 12 11 6.25 6.25 5.75 3276 0.29774 0.6017087056542509
X 12 12 12 6.25 6.25 6.25 3277 0.22922 1.006046321353367
X 12 12 13 6.25 6.25 6.75 3278 0.1577 1.44538434245335
X 12 12 14 6.25 6.25 7.25 3279 0.12406 1.835653418908549
X 12 12 15 6.25 6.25 7.75 3280 0.09844 2.075072975636229
X 12 13 0 6.25 6.75 0.25 3281 0.11214 1.826990273139954
X 12 13 1 6.25 6.75 0.75 3282 0.12358 1.682227856707706
X 12 13 2 6.25 6.75 1.25 3283 0.15786 1.408467867382707
X 12 13 3 6.25 6.75 1.75 3284 0.20308 1.062491747308135
X 12 13 4 6.25 6.75 2.25 3285 0.2598199999999999 0.7060176565080573
X 12 13 5 6.25 6.75 2.75 3286 0.30692 0.3883257964997515
X 12 13 6 6.25 6.75 3.25 3287 0.35224 0.1460132329937267
X 12 13 7 6.25 6.75 3.75 3288 0.39218 0.0177047584471387
X 12 13 8 6.25 6.75 4.25 3289 0.3951399999999999 1.088391552911407e-06
X 12 13 9 6.25 6.75 4.75 3290 0.3943800000000001 0.08251535236813273
X 12 13 10 6.25 6.75 5.25 3291 0.35052 0.3095243597591731
X 12 13 11 6.25 6.75 5.75 3292 0.28432 0.612052549800709
X 12 13 12 6.25 6.75 6.25 3293 0.23524 0.9690554560167289
X 12 13 13 6.25 6.75 6.75 3294 0.16978 1.333115121706544
X 12 13 14 6.25 6.75 7.25 3295 0.14482 1.636071059879698
X 12 13 15 6.25 6.75 7.75 3296 0.12492 1.81036935894975
X 12 14 0 6.25 7.25 0.25 3297 0.14626 1.470227751238252
X 12 14 1 6.25 7.25 0.75 3298 0.16714 1.341812617242515
X 12 14 2 6.25 7.25 1.25 3299 0.19142 1.109266771356926
X 12 14 3 6.25 7.25 1.75 3300 0.24004 0.8189222298818831
X 12 14 4 6.25 7.25 2.25 3301 0.29294 0.5222818405182041
X 12 14 5 6.25 7.25 2.75 3302 0.3404800000000001 0.25988959424922
X 12 14 6 6.25 7.25 3.25 3303 0.36872 0.06343707509736118
X 12 14 7 6.25 7.25 3.75 3304 0.3948199999999999 0
X 12 14 8 6.25 7.25 4.25 3305 0.39326 0.000622547561902452
X 12 14 9 6.25 7.25 4.75 3306 0.394 0.04326736700131652
X 12 14 10 6.25 7.25 5.25 3307 0.35272 0.2303096483184251
X 12 14 11 6.25 7.25 5.75 3308 0.3004599999999999 0.4929959634866369
X 12 14 12 6.25 7.25 6.25 3309 0.25038 0.7926659091713527
X 12 14 13 6.25 7.25 6.75 3310 0.20154 1.088607363511721
X 12 14 14 6.25 7.25 7.25 3311 0.17178 1.329226231704191
X 12 14 15 6.25 7.25 7.75 3312 0.15564 1.466234415450968
X 12 15 0 6.25 7.75 0.25 3313 0.19926 1.093309458833228
X 12 15 1 6.25 7.75 0.75 3314 0.2084 0.9814759315318731
X 12 15 2 6.25 7.75 1.25 3315 0.24896 0.7924210287302578
X 12 15 3 6.25 7.75 1.75 3316 0.27748 0.5633131480441582
X 12 15 4 6.25 7.75 2.25 3317 0.31046 0.3314048033617245
X 12 15 5 6.25 7.75 2.75 3318 0.3642 0.1278436223969565
X 12 15 6 6.25 7.75 3.25 3319 0.40112 0.007966569603785015
X 12 15 7 6.25 7.75 3.75 3320 0.39842 0.0009282966200507392
X 12 15 8 6.25 7.75 4.25 3321 0.408 0.006751763014455429
X 12 15 9 6.25 7.75 4.75 3322 0.3987599999999999 0.03751228107237733
X 12 15 10 6.25 7.75 5.25 3323 0.36262 0.1477639984090815
X 12 15 11 6.25 7.75 5.75 3324 0.3134 0.3563162215123549
X 12 15 12 6.25 7.75 6.25 3325 0.27788 0.5964132360602895
X 12 15 13 6.25 7.75 6.75 3326 0.23626 0.8269275083315311
X 12 15 14 6.25 7.75 7.25 3327 0.21002 1.007460964677235
X 12 15 15 6.25 7.75 7.75 3328 0.1969 1.102778834046971
X 13 0 0 6.75 0.25 0.25 3329 0.20858 0.987312122457557
X 13 0 1 6.75 0.25 0.75 3330 0.22158 0.8571638587770632
X 13 0 2 6.75 0.25 1.25 3331 0.25824 0.667375747680079
X 13 0 3 6.75 0.25 1.75 3332 0.30206 0.4514716917892928
X 13 0 4 6.75 0.25 2.25 3333 0.3351 0.243072363653713
X 13 0 5 6.75 0.25 2.75 3334 0.37694 0.08331350648560386
X 13 0 6 6.75 0.25 3.25 3335 0.39176 0.01020262101655991
X 13 0 7 6.75 0.25 3.75 3336 0.40618 0.01253234213206013
X 13 0 8 6.75 0.25 4.25 3337 0.40162 0.03377962919450207
X 13 0 9 6.75 0.25 4.75 3338 0.37616 0.1061553721060769
X 13 0 10 6.75 0.25 5.25 3339 0.34576 0.2399786345070574
X 13 0 11 6.75 0.25 5.75 3340 0.31934 0.41824469229846
X 13 0 12 6.75 0.25 6.25 3341 0.27184 0.6456931943202703
X 13 0 13 6.75 0.25 6.75 3342 0.23236 0.8488351452874596
X 13 0 14 6.75 0.25 7.25 3343 0.21002 0.9855306966310274
X 13 0 15 6.75 0.25 7.75 3344 0.19704 1.033587087480233
X 13 1 0 6.75 0.75 0.25 3345 0.25204 0.6605313016686624
X 13 1 1 6.75 0.75 0.75 3346 0.26816 0.536088316092306
X 13 1 2 6.75 0.75 1.25 3347 0.2919 0.3836123962639778
X 13 1 3 6.75 0.75 1.75 3348 0.33674 0.2312391294454871
X 13 1 4 6.75 0.75 2.25 3349 0.36212 0.1129628480882374
X 13 1 5 6.75 0.75 2.75 3350 0.38686 0.03417124393125238
X 13 1 6 6.75 0.75 3.25 3351 0.3954 0.007120265781440115
X 13 1 7 6.75 0.75 3.75 3352 0.40564 0.02565046502903846
X 13 1 8 6.75 0.75 4.25 3353 0.4066199999999999 0.06294353840373608
X 13 1 9 6.75 0.75 4.75 3354 0.3853400000000001 0.1332417429785041
X 13 1 10 6.75 0.75 5.25 3355 0.35868 0.2732085958080545
X 13 1 11 6.75 0.75 5.75 3356 0.33166 0.4341486811830615
X 13 1 12 6.75 0.75 6.25 3357 0.2952399999999999 0.5791020763200563
X 13 1 13 6.75 0.75 6.75 3358 0.2578 0.6936526997788574
X 13 1 14 6.75 0.75 7.25 3359 0.2452 0.7525188491845507
X 13 1 15 6.75 0.75 7.75 3360 0.24242 0.7383968139567445
X 13 2 0 6.75 1.25 0.25 3361 0.27966 0.4702289907339004
X 13 2 1 6.75 1.25 0.75 3362 0.31134 0.3464629521935436
X 13 2 2 6.75 1.25 1.25 3363 0.33294 0.225350100023671
X 13 2 3 6.75 1.25 1.75 3364 0.36632 0.122537441909233
X 13 2 4 6.75 1.25 2.25 3365 0.3777 0.04839878245547823
X 13 2 5 6.75 1.25 2.75 3366 0.37992 0.005266280243448819
X 13 2 6 6.75 1.25 3.25 3367 0.40036 0.0124690333899534
X 13 2 7 6.75 1.25 3.75 3368 0.40532 0.04053159069120882
X 13 2 8 6.75 1.25 4.25 3369 0.40038 0.09608571336364764
X 13 2 9 6.75 1.25 4.75 3370 0.39122 0.1845479565615113
X 13 2 10 6.75 1.25 5.25 3371 0.36792 0.3163661081038723
X 13 2 11 6.75 1.25 5.75 3372 0.33044 0.4827922194031484
X 13 2 12 6.75 1.25 6.25 3373 0.31926 0.6153509946446027
X 13 2 13 6.75 1.25 6.75 3374 0.28978 0.6746582278721754
X 13 2 14 6.75 1.25 7.25 3375 0.27542 0.6608676226115441
X 13 2 15 6.75 1.25 7.75 3376 0.2799 0.5832447119396494
X 13 3 0 6.75 1.75 0.25 3377 0.28006 0.5326879298555071
X 13 3 1 6.75 1.75 0.75 3378 0.30454 0.3902806309712116
X 13 3 2 6.75 1.75 1.25 3379 0.33826 0.2504286559648182
X 13 3 3 6.75 1.75 1.75 3380 0.36628 0.1189648629291437
X 13 3 4 6.75 1.75 2.25 3381 0.3793800000000001 0.02147640648138093
X 13 3 5 6.75 1.75 2.75 3382 0.39946 0.002325431827672034
X 13 3 6 6.75 1.75 3.25 3383 0.41984 0.01696471069037948
X 13 3 7 6.75 1.75 3.75 3384 0.40776 0.0523582868169481
X 13 3 8 6.75 1.75 4.25 3385 0.40486 0.1222759079854911
X 13 3 9 6.75 1.75 4.75 3386 0.39982 0.2291248832320636
X 13 3 10 6.75 1.75 5.25 3387 0.3575200000000001 0.3662433339411599
X 13 3 11 6.75 1.75 5.75 3388 0.3382600000000001 0.5186678842474177
X 13 3 12 6.75 1.75 6.25 3389 0.31272 0.6727805953276342
X 13 3 13 6.75 1.75 6.75 3390 0.29268 0.7662421359067936
X 13 3 14 6.75 1.75 7.25 3391 0.28116 0.7562440580561977
X 13 3 15 6.75 1.75 7.75 3392 0.2811 0.6641769988449543
X 13 4 0 6.75 2.25 0.25 3393 0.27496 0.6768589515127957
X 13 4 1 6.75 2.25 0.75 3394 0.29878 0.5267849727290896
X 13 4 2 6.75 2.25 1.25 3395 0.31838 0.3776503569571312
X 13 4 3 6.75 2.25 1.75 3396 0.33908 0.243139610043663
X 13 4 4 6.75 2.25 2.25 3397 0.3779 0.1289843381998488
X 13 4 5 6.75 2.25 2.75 3398 0.38622 0.03818646400014025
X 13 4 6 6.75 2.25 3.25 3399 0.41524 0.01843736856391699
X 13 4 7 6.75 2.25 3.75 3400 0.41776 0.05623238097531993
X 13 4 8 6.75 2.25 4.25 3401 0.40584 0.1301172462137948
X 13 4 9 6.75 2.25 4.75 3402 0.3938199999999999 0.2385915007353615
X 13 4 10 6.75 2.25 5.25 3403 0.36458 0.3727421784002033
X 13 4 11 6.75 2.25 5.75 3404 0.32764 0.5629110850247108
X 13 4 12 6.75 2.25 6.25 3405 0.2971 0.7539409399222112
X 13 4 13 6.75 2.25 6.75 3406 0.26926 0.8765014868757285
X 13 4 14 6.75 2.25 7.25 3407 0.26534 0.8943191535806582
X 13 4 15 6.75 2.25 7.75 3408 0.26792 0.8094726286132758
X 13 5 0 6.75 2.75 0.25 3409 0.2356 0.9159717593992915
X 13 5 1 6.75 2.75 0.75 3410 0.24746 0.7757337381894926
X 13 5 2 6.75 2.75 1.25 3411 0.27772 0.6164618315062533
X 13 5 3 6.75 2.75 1.75 3412 0.31838 0.4484821202383805
X 13 5 4 6.75 2.75 2.25 3413 0.34472 0.2855535904163064
X 13 5 5 6.75 2.75 2.75 3414 0.3779 0.1444910937197392
X 13 5 6 6.75 2.75 3.25 3415 0.3962 0.04588497286649602
X 13 5 7 6.75 2.75 3.75 3416 0.41128 0.05038607482096306
X 13 5 8 6.75 2.75 4.25 3417 0.4169 0.111955916108252
X 13 5 9 6.75 2.75 4.75 3418 0.4016999999999999 0.178248966291391
X 13 5 10 6.75 2.75 5.25 3419 0.38054 0.329939214624989
X 13 5 11 6.75 2.75 5.75 3420 0.33912 0.5588225105698162
X 13 5 12 6.75 2.75 6.25 3421 0.29462 0.7884191641150379
X 13 5 13 6.75 2.75 6.75 3422 0.26138 0.965612621502032
X 13 5 14 6.75 2.75 7.25 3423 0.2552 1.048105835351731
X 13 5 15 6.75 2.75 7.75 3424 0.24874 1.022483964581713
X 13 6 0 6.75 3.25 0.25 3425 0.19792 1.229828589971315
X 13 6 1 6.75 3.25 0.75 3426 0.2182 1.090717599617224
X 13 6 2 6.75 3.25 1.25 3427 0.23758 0.9028314797385557
X 13 6 3 6.75 3.25 1.75 3428 0.2706 0.6860726461937986
X 13 6 4 6.75 3.25 2.25 3429 0.31574 0.4670692987003882
X 13 6 5 6.75 3.25 2.75 3430 0.3614 0.27057991750711
X 13 6 6 6.75 3.25 3.25 3431 0.38812 0.1191159325990756
X 13 6 7 6.75 3.25 3.75 3432 0.4072 0.04438671570820043
X 13 6 8 6.75 3.25 4.25 3433 0.39702 0.05868637078587575
X 13 6 9 6.75 3.25 4.75 3434 0.40202 0.1048077831170655
X 13 6 10 6.75 3.25 5.25 3435 0.38188 0.2755638768207364
X 13 6 11 6.75 3.25 5.75 3436 0.3512599999999999 0.5192464324341978
X 13 6 12 6.75 3.25 6.25 3437 0.3086 0.7891578946860125
X 13 6 13 6.75 3.25 6.75 3438 0.25 1.033458558239777
X 13 6 14 6.75 3.25 7.25 3439 0.21714 1.211472479828247
X 13 6 15 6.75 3.25 7.75 3440 0.19724 1.284151348674968
X 13 7 0 6.75 3.75 0.25 3441 0.15242 1.603220705023523
X 13 7 1 6.75 3.75 0.75 3442 0.1531 1.455925786927225
X 13 7 2 6.75 3.75 1.25 3443 0.19452 1.21589922488482
X 13 7 3 6.75 3.75 1.75 3444 0.23146 0.930638081334065
X 13 7 4 6.75 3.75 2.25 3445 0.27714 0.6516194134406804
X 13 7 5 6.75 3.75 2.75 3446 0.32196 0.398737802839245
X 13 7 6 6.75 3.75 3.25 3447 0.37642 0.1970919194646306
X 13 7 7 6.75 3.75 3.75 3448 0.39426 0.05808914716700869
X 13 7 8 6.75 3.75 4.25 3449 0.4044 0.003675495545266609
X 13 7 9 6.75 3.75 4.75 3450 0.4004800000000001 0.06403922757189012
X 13 7 10 6.75 3.75 5.25 3451 0.38176 0.2389743961512182
X 13 7 11 6.75 3.75 5.75 3452 0.33932 0.4964718729811039
X 13 7 12 6.75 3.75 6.25 3453 0.2854599999999999 0.8157308194892996
X 13 7 13 6.75 3.75 6.75 3454 0.22804 1.147557050759533
X 13 7 14 6.75 3.75 7.25 3455 0.18388 1.429355748716737
X 13 7 15 6.75 3.75 7.75 3456 0.1545 1.601316203971717
X 13 8 0 6.75 4.25 0.25 3457 0.10816 1.980900853732379
X 13 8 1 6.75 4.25 0.75 3458 0.1228 1.827251507414456
X 13 8 2 6.75 4.25 1.25 3459 0.14132 1.54510841609054
X 13 8 3 6.75 4.25 1.75 3460 0.19068 1.187530883263301
X 13 8 4 6.75 4.25 2.25 3461 0.24584 0.8195977584702596
X 13 8 5 6.75 4.25 2.75 3462 0.29902 0.5085932306629862
X 13 8 6 6.75 4.25 3.25 3463 0.35048 0.26393812129795
X 13 8 7 6.75 4.25 3.75 3464 0.3877 0.08661656031404126
X 13 8 8 6.75 4.25 4.25 3465 0.4135 -0.01484137293796844
X 13 8 9 6.75 4.25 4.75 3466 0.39896 0.05833789931689354
X 13 8 10 6.75 4.25 5.25 3467 0.37452 0.2364057711725183
X 13 8 11 6.75 4.25 5.75 3468 0.32438 0.536371325790387
X 13 8 12 6.75 4.25 6.25 3469 0.25682 0.9265678761793021
X 13 8 13 6.75 4.25 6.75 3470 0.20514 1.337201316687603
X 13 8 14 6.75 4.25 7.25 3471 0.14772 1.700818896257118
X 13 8 15 6.75 4.25 7.75 3472 0.11978 1.94258073138279
X 13 9 0 6.75 4.75 0.25 3473 0.08532000000000001 2.296249685879492
X 13 9 1 6.75 4.75 0.75 3474 0.09907999999999999 2.131030364469383
X 13 9 2 6.75 4.75 1.25 3475 0.125 1.81152561716669
X 13 9 3 6.75 4.75 1.75 3476 0.16576 1.402041441003543
X 13 9 4 6.75 4.75 2.25 3477 0.23896 0.9713912097622857
X 13 9 5 6.75 4.75 2.75 3478 0.29062 0.5870118662599823
X 13 9 6 6.75 4.75 3.25 3479 0.3468599999999999 0.3078290613574077
X 13 9 7 6.75 4.75 3.75 3480 0.39214 0.1101209163703737
X 13 9 8 6.75 4.75 4.25 3481 0.41178 -0.003307128397314767
X 13 9 9 6.75 4.75 4.75 3482 0.38538 0.08597514715737799
X 13 9 10 6.75 4.75 5.25 3483 0.36168 0.298064024570754
X 13 9 11 6.75 4.75 5.75 3484 0.3038 0.6464782461174523
X 13 9 12 6.75 4.75 6.25 3485 0.22992 1.084147819204567
X 13 9 13 6.75 4.75 6.75 3486 0.1664 1.55282494727624
X 13 9 14 6.75 4.75 7.25 3487 0.11662 1.974514692123553
X 13 9 15 6.75 4.75 7.75 3488 0.09324 2.249636310873013
X 13 10 0 6.75 5.25 0.25 3489 0.06831999999999999 2.494122224448399
X 13 10 1 6.75 5.25 0.75 3490 0.08019999999999999 2.317048281089129
X 13 10 2 6.75 5.25 1.25 3491 0.10474 1.971355569093919
X 13 10 3 6.75 5.25 1.75 3492 0.1474 1.525454285106677
X 13 10 4 6.75 5.25 2.25 3493 0.219 1.058751114241896
X 13 10 5 6.75 5.25 2.75 3494 0.29568 0.637260478688592
X 13 10 6 6.75 5.25 3.25 3495 0.3385799999999999 0.3187737779343496
X 13 10 7 6.75 5.25 3.75 3496 0.37236 0.114718958879367
X 13 10 8 6.75 5.25 4.25 3497 0.39028 0.01748386174621811
X 13 10 9 6.75 5.25 4.75 3498 0.37514 0.1432503501782196
X 13 10 10 6.75 5.25 5.25 3499 0.331 0.3978301504076846
X 13 10 11 6.75 5.25 5.75 3500 0.27906 0.7727625547016465
X 13 10 12 6.75 5.25 6.25 3501 0.20452 1.24155728374939
X 13 10 13 6.75 5.25 6.75 3502 0.12992 1.743345777183572
X 13 10 14 6.75 5.25 7.25 3503 0.09766 2.185066800509166
X 13 10 15 6.75 5.25 7.75 3504 0.06972 2.458151582058384
X 13 11 0 6.75 5.75 0.25 3505 0.06612 2.537860547619491
X 13 11 1 6.75 5.75 0.75 3506 0.06913999999999999 2.353358957245192
X 13 11 2 6.75 5.75 1.25 3507 0.10064 1.9952910932676
X 13 11 3 6.75 5.75 1.75 3508 0.1366 1.537636894844071
X 13 11 4 6.75 5.75 2.25 3509 0.20832 1.062262007076742
X 13 11 5 6.75 5.75 2.75 3510 0.27638 0.6357084942115845
X 13 11 6 6.75 5.75 3.25 3511 0.32982 0.3012775520575512
X 13 11 7 6.75 5.75 3.75 3512 0.37852 0.09799565587059161
X 13 11 8 6.75 5.75 4.25 3513 0.3875 0.02103934592437375
X 13 11 9 6.75 5.75 4.75 3514 0.37018 0.1928268824991002
X 13 11 10 6.75 5.75 5.25 3515 0.32292 0.4804485324342395
X 13 11 11 6.75 5.75 5.75 3516 0.26194 0.8711422858736715
X 13 11 12 6.75 5.75 6.25 3517 0.18836 1.34658042415574
X 13 11 13 6.75 5.75 6.75 3518 0.12712 1.843030406278201
X 13 11 14 6.75 5.75 7.25 3519 0.08852 2.263726161814317
X 13 11 15 6.75 5.75 7.75 3520 0.0678 2.50817301732954
X 13 12 0 6.75 6.25 0.25 3521 0.06444000000000001 2.416185935114435
X 13 12 1 6.75 6.25 0.75 3522 0.07852000000000001 2.230820080309248
X 13 12 2 6.75 6.25 1.25 3523 0.11482 1.880691146520774
X 13 12 3 6.75 6.25 1.75 3524 0.1577 1.438393482082764
X 13 12 4 6.75 6.25 2.25 3525 0.21514 0.9828046326082711
X 13 12 5 6.75 6.25 2.75 3526 0.28208 0.5769401031660496
X 13 12 6 6.75 6.25 3.25 3527 0.3458000000000001 0.2565372858785963
X 13 12 7 6.75 6.25 3.75 3528 0.38766 0.06220020851551517
X 13 12 8 6.75 6.25 4.25 3529 0.38508 0.01119071431273579
X 13 12 9 6.75 6.25 4.75 3530 0.35488 0.1895641330721421
X 13 12 10 6.75 6.25 5.25 3531 0.3203 0.4904878724298213
X 13 12 11 6.75 6.25 5.75 3532 0.24612 0.8786792131167254
X 13 12 12 6.75 6.25 6.25 3533 0.18196 1.333385776344453
X 13 12 13 6.75 6.25 6.75 3534 0.12876 1.793140233518808
X 13 12 14 6.75 6.25 7.25 3535 0.09088 2.170777617693689
X 13 12 15 6.75 6.25 7.75 3536 0.07915999999999999 2.394795578806272
X 13 13 0 6.75 6.75 0.25 3537 0.09115999999999999 2.147177036563154
X 13 13 1 6.75 6.75 0.75 3538 0.10052 1.971494075593576
X 13 13 2 6.75 6.75 1.25 3539 0.13042 1.648980477800889
X 13 13 3 6.75 6.75 1.75 3540 0.16432 1.246438094227682
X 13 13 4 6.75 6.75 2.25 3541 0.23648 0.8354554246041554
X 13 13 5 6.75 6.75 2.75 3542 0.30222 0.4721555247702768
X 13 13 6 6.75 6.75 3.25 3543 0.34842 0.1869918161596336
X 13 13 7 6.75 6.75 3.75 3544 0.37482 0.0212824013772278
X 13 13 8 6.75 6.75 4.25 3545 0.38232 0.009471794927749497
X 13 13 9 6.75 6.75 4.75 3546 0.36386 0.1460006666964744
X 13 13 10 6.75 6.75 5.25 3547 0.314 0.4234391873390689
X 13 13 11 6.75 6.75 5.75 3548 0.25672 0.7834038716332991
X 13 13 12 6.75 6.75 6.25 3549 0.19086 1.196408245463303
X 13 13 13 6.75 6.75 6.75 3550 0.13876 1.607005040291811
X 13 13 14 6.75 6.75 7.25 3551 0.10674 1.943379618007973
X 13 13 15 6.75 6.75 7.75 3552 0.08843999999999999 2.137324397291636
X 13 14 0 6.75 7.25 0.25 3553 0.1224 1.780482668656665
X 13 14 1 6.75 7.25 0.75 3554 0.13932 1.61915709879397
X 13 14 2 6.75 7.25 1.25 3555 0.16436 1.338449642981755
X 13 14 3 6.75 7.25 1.75 3556 0.21014 0.9937535424226809
X 13 14 4 6.75 7.25 2.25 3557 0.2718 0.6449422546608197
X 13 14 5 6.75 7.25 2.75 3558 0.32978 0.3390643058543112
X 13 14 6 6.75 7.25 3.25 3559 0.36498 0.1008251733052498
X 13 14 7 6.75 7.25 3.75 3560 0.3779 0.0001126302226676199
X 13 14 8 6.75 7.25 4.25 3561 0.38396 0.01172603918078767
X 13 14 9 6.75 7.25 4.75 3562 0.36636 0.1042616931503921
X 13 14 10 6.75 7.25 5.25 3563 0.32888 0.334758828551421
X 13 14 11 6.75 7.25 5.75 3564 0.27834 0.6483290991444254
X 13 14 12 6.75 7.25 6.25 3565 0.21634 1.003943419569466
X 13 14 13 6.75 7.25 6.75 3566 0.1646 1.352120640934183
X 13 14 14 6.75 7.25 7.25 3567 0.1324 1.631343840797048
X 13 14 15 6.75 7.25 7.75 3568 0.11942 1.785192214456934
X 13 15 0 6.75 7.75 0.25 3569 0.15902 1.37487080134165
X 13 15 1 6.75 7.75 0.75 3570 0.17972 1.230980212819172
X 13 15 2 6.75 7.75 1.25 3571 0.20902 0.9959493300947279
X 13 15 3 6.75 7.75 1.75 3572 0.25012 0.7173153090487486
X 13 15 4 6.75 7.75 2.25 3573 0.3035600000000001 0.4391893793735972
X 13 15 5 6.75 7.75 2.75 3574 0.35114 0.1972154872764001
X 13 15 6 6.75 7.75 3.25 3575 0.38562 0.03048163535050387
X 13 15 7 6.75 7.75 3.75 3576 0.39124 0.003581468792773025
X 13 15 8 6.75 7.75 4.25 3577 0.39644 0.01768301776087787
X 13 15 9 6.75 7.75 4.75 3578 0.37566 0.0969306640552121
X 13 15 10 6.75 7.75 5.25 3579 0.3472 0.2527203375757521
X 13 15 11 6.75 7.75 5.75 3580 0.29304 0.5125311741039432
X 13 15 12 6.75 7.75 6.25 3581 0.2394 0.8049369269145846
X 13 15 13 6.75 7.75 6.75 3582 0.19736 1.081101063691605
X 13 15 14 6.75 7.75 7.25 3583 0.16906 1.292087288946283
X 13 15 15 6.75 7.75 7.75 3584 0.15696 1.397017831533839
X 14 0 0 7.25 0.25 0.25 3585 0.18818 1.189844587839517
X 14 0 1 7.25 0.25 0.75 3586 0.2068 1.029218221666409
X 14 0 2 7.25 0.25 1.25 3587 0.2351 0.8036050529509826
X 14 0 3 7.25 0.25 1.75 3588 0.2737 0.5509696539697938
X 14 0 4 7.25 0.25 2.25 3589 0.33318 0.310454750018967
X 14 0 5 7.25 0.25 2.75 3590 0.3606200000000001 0.1309097333557423
X 14 0 6 7.25 0.25 3.25 3591 0.3743 0.03469625130444241
X 14 0 7 7.25 0.25 3.75 3592 0.39354 0.01881465023570853
X 14 0 8 7.25 0.25 4.25 3593 0.39994 0.05460624660834106
X 14 0 9 7.25 0.25 4.75 3594 0.37116 0.1689710344289859
X 14 0 10 7.25 0.25 5.25 3595 0.34644 0.3387144265002938
X 14 0 11 7.25 0.25 5.75 3596 0.29894 0.5557334098083746
X 14 0 12 7.25 0.25 6.25 3597 0.24432 0.8245565564743467
X 14 0 13 7.25 0.25 6.75 3598 0.2052 1.062019463824772
X 14 0 14 7.25 0.25 7.25 3599 0.17972 1.213409175226138
X 14 0 15 7.25 0.25 7.75 3600 0.17704 1.256221433461433
X 14 1 0 7.25 0.75 0.25 3601 0.23328 0.8402449517656483
X 14 1 1 7.25 0.75 0.75 3602 0.24708 0.6817307170398372
X 14 1 2 7.25 0.75 1.25 3603 0.27966 0.4953587552647846
X 14 1 3 7.25 0.75 1.75 3604 0.3178 0.315678729045049
X 14 1 4 7.25 0.75 2.25 3605 0.35318 0.1731277159560376
X 14 1 5 7.25 0.75 2.75 3606 0.39054 0.07311923441148277
X 14 1 6 7.25 0.75 3.25 3607 0.38596 0.01798316153637616
X 14 1 7 7.25 0.75 3.75 3608 0.39658 0.0365358155292954
X 14 1 8 7.25 0.75 4.25 3609 0.3918400000000001 0.08025160674210496
X 14 1 9 7.25 0.75 4.75 3610 0.37342 0.1812684003852366
X 14 1 10 7.25 0.75 5.25 3611 0.34612 0.3588987003897575
X 14 1 11 7.25 0.75 5.75 3612 0.30946 0.565777021599337
X 14 1 12 7.25 0.75 6.25 3613 0.27832 0.7580109406754312
X 14 1 13 7.25 0.75 6.75 3614 0.25068 0.9068637121210236
X 14 1 14 7.25 0.75 7.25 3615 0.22192 0.9765980525916672
X 14 1 15 7.25 0.75 7.75 3616 0.2191 0.9481364720651713
X 14 2 0 7.25 1.25 0.25 3617 0.27236 0.6293349117632763
X 14 2 1 7.25 1.25 0.75 3618 0.28676 0.4667458805986127
X 14 2 2 7.25 1.25 1.25 3619 0.31708 0.3129790664815836
X 14 2 3 7.25 1.25 1.75 3620 0.33892 0.1876345242414953
X 14 2 4 7.25 1.25 2.25 3621 0.37106 0.09129894536311431
X 14 2 5 7.25 1.25 2.75 3622 0.3885 0.02412118204633404
X 14 2 6 7.25 1.25 3.25 3623 0.40462 0.01872831487716528
X 14 2 7 7.25 1.25 3.75 3624 0.41196 0.05240344171977931
X 14 2 8 7.25 1.25 4.25 3625 0.3987 0.1072944991388624
X 14 2 9 7.25 1.25 4.75 3626 0.3787 0.2051051605233438
X 14 2 10 7.25 1.25 5.25 3627 0.35516 0.3894931322546151
X 14 2 11 7.25 1.25 5.75 3628 0.3121 0.6082085174483053
X 14 2 12 7.25 1.25 6.25 3629 0.2838 0.7898146776720211
X 14 2 13 7.25 1.25 6.75 3630 0.26422 0.8811883998933031
X 14 2 14 7.25 1.25 7.25 3631 0.25072 0.8766411576081277
X 14 2 15 7.25 1.25 7.75 3632 0.25846 0.7814686198024776
X 14 3 0 7.25 1.75 0.25 3633 0.25868 0.6561233361533422
X 14 3 1 7.25 1.75 0.75 3634 0.29266 0.4722050792560953
X 14 3 2 7.25 1.75 1.25 3635 0.3239 0.3029793359450634
X 14 3 3 7.25 1.75 1.75 3636 0.35632 0.1519776324566455
X 14 3 4 7.25 1.75 2.25 3637 0.3713399999999999 0.03568764760142145
X 14 3 5 7.25 1.75 2.75 3638 0.39194 0.004964661257840801
X 14 3 6 7.25 1.75 3.25 3639 0.40574 0.02485915713861335
X 14 3 7 7.25 1.75 3.75 3640 0.41638 0.06105952684404266
X 14 3 8 7.25 1.75 4.25 3641 0.41686 0.12466501093192
X 14 3 9 7.25 1.75 4.75 3642 0.38768 0.2424227821010277
X 14 3 10 7.25 1.75 5.25 3643 0.36366 0.4172259800675507
X 14 3 11 7.25 1.75 5.75 3644 0.32634 0.636091530870443
X 14 3 12 7.25 1.75 6.25 3645 0.29514 0.835311857986389
X 14 3 13 7.25 1.75 6.75 3646 0.25678 0.9521693340585197
X 14 3 14 7.25 1.75 7.25 3647 0.24316 0.9436032337611626
X 14 3 15 7.25 1.75 7.75 3648 0.25596 0.8309543478559015
X 14 4 0 7.25 2.25 0.25 3649 0.25514 0.7659468022490504
X 14 4 1 7.25 2.25 0.75 3650 0.29442 0.5753726671541453
X 14 4 2 7.25 2.25 1.25 3651 0.31884 0.3963877594156063
X 14 4 3 7.25 2.25 1.75 3652 0.3424 0.2384101275917125
X 14 4 4 7.25 2.25 2.25 3653 0.36402 0.1160568335008616
X 14 4 5 7.25 2.25 2.75 3654 0.40112 0.03301521071853343
X 14 4 6 7.25 2.25 3.25 3655 0.40824 0.02647125917437143
X 14 4 7 7.25 2.25 3.75 3656 0.40994 0.06183419441360227
X 14 4 8 7.25 2.25 4.25 3657 0.4003 0.1278383444260821
X 14 4 9 7.25 2.25 4.75 3658 0.38546 0.2526918833601692
X 14 4 10 7.25 2.25 5.25 3659 0.36778 0.4343195657894454
X 14 4 11 7.25 2.25 5.75 3660 0.33478 0.6755503553466299
X 14 4 12 7.25 2.25 6.25 3661 0.2899 0.9145606276620609
X 14 4 13 7.25 2.25 6.75 3662 0.26352 1.050393677580231
X 14 4 14 7.25 2.25 7.25 3663 0.2479 1.050162372610962
X 14 4 15 7.25 2.25 7.75 3664 0.24378 0.9414250507708792
X 14 5 0 7.25 2.75 0.25 3665 0.23406 0.9513598606153391
X 14 5 1 7.25 2.75 0.75 3666 0.2543 0.7736302467752671
X 14 5 2 7.25 2.75 1.25 3667 0.28958 0.5966389878136644
X 14 5 3 7.25 2.75 1.75 3668 0.31986 0.4257230001793465
X 14 5 4 7.25 2.75 2.25 3669 0.34844 0.265330325163188
X 14 5 5 7.25 2.75 2.75 3670 0.3928 0.1317421242073445
X 14 5 6 7.25 2.75 3.25 3671 0.39808 0.04542894102620637
X 14 5 7 7.25 2.75 3.75 3672 0.41428 0.05607383427124474
X 14 5 8 7.25 2.75 4.25 3673 0.4044 0.1147054789425138
X 14 5 9 7.25 2.75 4.75 3674 0.39338 0.2257309094968822
X 14 5 10 7.25 2.75 5.25 3675 0.3654 0.4398526400300455
X 14 5 11 7.25 2.75 5.75 3676 0.32818 0.7300646795918104
X 14 5 12 7.25 2.75 6.25 3677 0.2736 0.9844839064580623
X 14 5 13 7.25 2.75 6.75 3678 0.24676 1.138178393793948
X 14 5 14 7.25 2.75 7.25 3679 0.22444 1.172065025926927
X 14 5 15 7.25 2.75 7.75 3680 0.21302 1.099977198150088
X 14 6 0 7.25 3.25 0.25 3681 0.18948 1.240682481459288
X 14 6 1 7.25 3.25 0.75 3682 0.21158 1.073187719086752
X 14 6 2 7.25 3.25 1.25 3683 0.23652 0.8679087924565121
X 14 6 3 7.25 3.25 1.75 3684 0.2714 0.6510294171823923
X 14 6 4 7.25 3.25 2.25 3685 0.31892 0.4374984511291278
X 14 6 5 7.25 3.25 2.75 3686 0.3571199999999999 0.2502854311063999
X 14 6 6 7.25 3.25 3.25 3687 0.37622 0.1104386408878053
X 14 6 7 7.25 3.25 3.75 3688 0.40798 0.04963145773981841
X 14 6 8 7.25 3.25 4.25 3689 0.41218 0.09122719144232597
X 14 6 9 7.25 3.25 4.75 3690 0.40886 0.1978777369542618
X 14 6 10 7.25 3.25 5.25 3691 0.36494 0.4401895274012185
X 14 6 11 7.25 3.25 5.75 3692 0.31864 0.7275232554704281
X 14 6 12 7.25 3.25 6.25 3693 0.26442 1.013608097144449
X 14 6 13 7.25 3.25 6.75 3694 0.22234 1.238169794994235
X 14 6 14 7.25 3.25 7.25 3695 0.20774 1.349848663506536
X 14 6 15 7.25 3.25 7.75 3696 0.1882 1.345763935843062
X 14 7 0 7.25 3.75 0.25 3697 0.14866 1.612152855011538
X 14 7 1 7.25 3.75 0.75 3698 0.16266 1.446698651321384
X 14 7 2 7.25 3.75 1.25 3699 0.1986 1.196100034542669
X 14 7 3 7.25 3.75 1.75 3700 0.23816 0.8985680047269244
X 14 7 4 7.25 3.75 2.25 3701 0.272 0.6130896112616664
X 14 7 5 7.25 3.75 2.75 3702 0.33244 0.3703398034415875
X 14 7 6 7.25 3.75 3.25 3703 0.3611 0.1811764562608817
X 14 7 7 7.25 3.75 3.75 3704 0.40408 0.0610785332314808
X 14 7 8 7.25 3.75 4.25 3705 0.4059199999999999 0.06487010030720293
X 14 7 9 7.25 3.75 4.75 3706 0.40008 0.1963388247020026
X 14 7 10 7.25 3.75 5.25 3707 0.361 0.4183051322432559
X 14 7 11 7.25 3.75 5.75 3708 0.3092 0.7013436261350385
X 14 7 12 7.25 3.75 6.25 3709 0.24646 1.047186205774392
X 14 7 13 7.25 3.75 6.75 3710 0.19468 1.37977763153657
X 14 7 14 7.25 3.75 7.25 3711 0.16544 1.593861150713666
X 14 7 15 7.25 3.75 7.75 3712 0.14134 1.667914132338775
X 14 8 0 7.25 4.25 0.25 3713 0.1037 1.992395655674618
X 14 8 1 7.25 4.25 0.75 3714 0.119 1.825491716828605
X 14 8 2 7.25 4.25 1.25 3715 0.15126 1.534565481353555
X 14 8 3 7.25 4.25 1.75 3716 0.19282 1.17156832733786
X 14 8 4 7.25 4.25 2.25 3717 0.24838 0.7970908649905979
X 14 8 5 7.25 4.25 2.75 3718 0.3074999999999999 0.4750076340397666
X 14 8 6 7.25 4.25 3.25 3719 0.36894 0.2412094817473096
X 14 8 7 7.25 4.25 3.75 3720 0.39556 0.08206637475657812
X 14 8 8 7.25 4.25 4.25 3721 0.39998 0.04696498922026588
X 14 8 9 7.25 4.25 4.75 3722 0.38782 0.2004867076250706
X 14 8 10 7.25 4.25 5.25 3723 0.35144 0.4299343469660266
X 14 8 11 7.25 4.25 5.75 3724 0.2908 0.7629238068822854
X 14 8 12 7.25 4.25 6.25 3725 0.22468 1.163378819646197
X 14 8 13 7.25 4.25 6.75 3726 0.1699 1.566173162320483
X 14 8 14 7.25 4.25 7.25 3727 0.13266 1.860689013390013
X 14 8 15 7.25 4.25 7.75 3728 0.1127 2.005141484440802
X 14 9 0 7.25 4.75 0.25 3729 0.07746 2.330226656882567
X 14 9 1 7.25 4.75 0.75 3730 0.09458 2.152818459884038
X 14 9 2 7.25 4.75 1.25 3731 0.12006 1.821305559051858
X 14 9 3 7.25 4.75 1.75 3732 0.16696 1.401872086337554
X 14 9 4 7.25 4.75 2.25 3733 0.22594 0.9647063236237934
X 14 9 5 7.25 4.75 2.75 3734 0.29302 0.5704165246086318
X 14 9 6 7.25 4.75 3.25 3735 0.34816 0.2805707240862313
X 14 9 7 7.25 4.75 3.75 3736 0.3833 0.09632656172754536
X 14 9 8 7.25 4.75 4.25 3737 0.40312 0.03355165835465708
X 14 9 9 7.25 4.75 4.75 3738 0.37216 0.2020184044461192
X 14 9 10 7.25 4.75 5.25 3739 0.34268 0.4973115580466578
X 14 9 11 7.25 4.75 5.75 3740 0.2672 0.8704103084002595
X 14 9 12 7.25 4.75 6.25 3741 0.20444 1.316535561460684
X 14 9 13 7.25 4.75 6.75 3742 0.13984 1.765970727974052
X 14 9 14 7.25 4.75 7.25 3743 0.10524 2.116593967021013
X 14 9 15 7.25 4.75 7.75 3744 0.08408 2.317180746231116
X 14 10 0 7.25 5.25 0.25 3745 0.06056 2.568318936281833
X 14 10 1 7.25 5.25 0.75 3746 0.07704 2.376427371513535
X 14 10 2 7.25 5.25 1.25 3747 0.10172 2.013166475509363
X 14 10 3 7.25 5.25 1.75 3748 0.14764 1.55055277569887
X 14 10 4 7.25 5.25 2.25 3749 0.21426 1.069674912248459
X 14 10 5 7.25 5.25 2.75 3750 0.27314 0.6384642813665287
X 14 10 6 7.25 5.25 3.25 3751 0.34208 0.3014117413840404
X 14 10 7 7.25 5.25 3.75 3752 0.3821 0.09766715435012922
X 14 10 8 7.25 5.25 4.25 3753 0.40644 0.02402708105546475
X 14 10 9 7.25 5.25 4.75 3754 0.36794 0.2209792588833598
X 14 10 10 7.25 5.25 5.25 3755 0.31828 0.5461339677703679
X 14 10 11 7.25 5.25 5.75 3756 0.25642 0.965008859115746
X 14 10 12 7.25 5.25 6.25 3757 0.18378 1.444167016336551
X 14 10 13 7.25 5.25 6.75 3758 0.11868 1.920639070735778
X 14 10 14 7.25 5.25 7.25 3759 0.08576 2.313557260654282
X 14 10 15 7.25 5.25 7.75 3760 0.0621 2.545852550686208
X 14 11 0 7.25 5.75 0.25 3761 0.05668000000000001 2.661131315979241
X 14 11 1 7.25 5.75 0.75 3762 0.06610000000000002 2.458659899978362
X 14 11 2 7.25 5.75 1.25 3763 0.09558 2.076421502452673
X 14 11 3 7.25 5.75 1.75 3764 0.1402 1.593162444390549
X 14 11 4 7.25 5.75 2.25 3765 0.2078 1.095176739301128
X 14 11 5 7.25 5.75 2.75 3766 0.27572 0.6518058882066028
X 14 11 6 7.25 5.75 3.25 3767 0.33398 0.3020139043982006
X 14 11 7 7.25 5.75 3.75 3768 0.37866 0.08250799753417337
X 14 11 8 7.25 5.75 4.25 3769 0.3952200000000001 0.02360672103745785
X 14 11 9 7.25 5.75 4.75 3770 0.3561 0.233577432323116
X 14 11 10 7.25 5.75 5.25 3771 0.30542 0.5661599715123649
X 14 11 11 7.25 5.75 5.75 3772 0.241 0.9974066593137981
X 14 11 12 7.25 5.75 6.25 3773 0.17172 1.493424522662358
X 14 11 13 7.25 5.75 6.75 3774 0.11414 1.988928846075395
X 14 11 14 7.25 5.75 7.25 3775 0.07892 2.398434971049512
X 14 11 15 7.25 5.75 7.75 3776 0.05853999999999999 2.639703516195146
X 14 12 0 7.25 6.25 0.25 3777 0.05861999999999999 2.587806441672348
X 14 12 1 7.25 6.25 0.75 3778 0.07116 2.380526553198518
X 14 12 2 7.25 6.25 1.25 3779 0.09545999999999999 1.999321138516269
X 14 12 3 7.25 6.25 1.75 3780 0.13894 1.523351067912037
X 14 12 4 7.25 6.25 2.25 3781 0.21318 1.037370990947095
X 14 12 5 7.25 6.25 2.75 3782 0.28716 0.608017493541913
X 14 12 6 7.25 6.25 3.25 3783 0.3317 0.2715281016863962
X 14 12 7 7.25 6.25 3.75 3784 0.37376 0.05076788729430766
X 14 12 8 7.25 6.25 4.25 3785 0.38192 0.02481524271706808
X 14 12 9 7.25 6.25 4.75 3786 0.36598 0.2245600480203272
X 14 12 10 7.25 6.25 5.25 3787 0.3074 0.5496233315611118
X 14 12 11 7.25 6.25 5.75 3788 0.2292 0.9718304493698764
X 14 12 12 7.25 6.25 6.25 3789 0.1713 1.458137331223191
X 14 12 13 7.25 6.25 6.75 3790 0.10968 1.94318932540957
X 14 12 14 7.25 6.25 7.25 3791 0.07398 2.342185444199274
X 14 12 15 7.25 6.25 7.75 3792 0.0594 2.574188839682257
X 14 13 0 7.25 6.75 0.25 3793 0.06954 2.354310295095935
X 14 13 1 7.25 6.75 0.75 3794 0.08665999999999999 2.153164850106354
X 14 13 2 7.25 6.75 1.25 3795 0.11178 1.794998924936929
X 14 13 3 7.25 6.75 1.75 3796 0.1574 1.353282559131765
X 14 13 4 7.25 6.75 2.25 3797 0.2137 0.9064056185012581
X 14 13 5 7.25 6.75 2.75 3798 0.29266 0.5147672153237988
X 14 13 6 7.25 6.75 3.25 3799 0.35096 0.210069396384373
X 14 13 7 7.25 6.75 3.75 3800 0.3656200000000001 0.01948520827863492
X 14 13 8 7.25 6.75 4.25 3801 0.38024 0.03190976236432772
X 14 13 9 7.25 6.75 4.75 3802 0.36672 0.1889405713044656
X 14 13 10 7.25 6.75 5.25 3803 0.30404 0.4945064766352116
X 14 13 11 7.25 6.75 5.75 3804 0.23564 0.8896145761875648
X 14 13 12 7.25 6.75 6.25 3805 0.1759 1.341393146551032
X 14 13 13 7.25 6.75 6.75 3806 0.11936 1.788026901031097
X 14 13 14 7.25 6.75 7.25 3807 0.08862 2.150299509801078
X 14 13 15 7.25 6.75 7.75 3808 0.0708 2.353853456855671
X 14 14 0 7.25 7.25 0.25 3809 0.09684 2.00425164764753
X 14 14 1 7.25 7.25 0.75 3810 0.11902 1.815345450703086
X 14 14 2 7.25 7.25 1.25 3811 0.14152 1.495962292503124
X 14 14 3 7.25 7.25 1.75 3812 0.1967 1.110273108573438
X 14 14 4 7.25 7.25 2.25 3813 0.2588 0.7236281639327861
X 14 14 5 7.25 7.25 2.75 3814 0.31028 0.3874687102097029
X 14 14 6 7.25 7.25 3.25 3815 0.3683 0.1279265461356114
X 14 14 7 7.25 7.25 3.75 3816 0.38978 0.003882464143785611
X 14 14 8 7.25 7.25 4.25 3817 0.3859400000000001 0.03617705803161628
X 14 14 9 7.25 7.25 4.75 3818 0.36608 0.1579264137188677
X 14 14 10 7.25 7.25 5.25 3819 0.3025800000000001 0.4148180248791637
X 14 14 11 7.25 7.25 5.75 3820 0.2436 0.76718916271096
X 14 14 12 7.25 7.25 6.25 3821 0.18222 1.16472552370402
X 14 14 13 7.25 7.25 6.75 3822 0.13988 1.550853808953795
X 14 14 14 7.25 7.25 7.25 3823 0.11084 1.856442058386245
X 14 14 15 7.25 7.25 7.75 3824 0.09514 2.019307021873301
X 14 15 0 7.25 7.75 0.25 3825 0.12398 1.594890509419781
X 14 15 1 7.25 7.75 0.75 3826 0.15836 1.422467628562148
X 14 15 2 7.25 7.75 1.25 3827 0.17898 1.149455206681878
X 14 15 3 7.25 7.75 1.75 3828 0.24212 0.8302088893052175
X 14 15 4 7.25 7.75 2.25 3829 0.2984 0.5160575022610814
X 14 15 5 7.25 7.75 2.75 3830 0.34044 0.2450426336980306
X 14 15 6 7.25 7.75 3.25 3831 0.38168 0.06246361890904158
X 14 15 7 7.25 7.75 3.75 3832 0.40022 0.007264151481066729
X 14 15 8 7.25 7.75 4.25 3833 0.3854000000000001 0.04029701478365082
X 14 15 9 7.25 7.75 4.75 3834 0.3563 0.156992292695278
X 14 15 10 7.25 7.75 5.25 3835 0.3321999999999999 0.3429368455445896
X 14 15 11 7.25 7.75 5.75 3836 0.26904 0.6420483001859435
X 14 15 12 7.25 7.75 6.25 3837 0.21874 0.9766948591497777
X 14 15 13 7.25 7.75 6.75 3838 0.17402 1.288427987943803
X 14 15 14 7.25 7.75 7.25 3839 0.14884 1.521400838501248
X 14 15 15 7.25 7.75 7.75 3840 0.1298 1.630686251982215
X 15 0 0 7.75 0.25 0.25 3841 0.1665 1.309166068415669
X 15 0 1 7.75 0.25 0.75 3842 0.17988 1.128508980669068
X 15 0 2 7.75 0.25 1.25 3843 0.2284 0.8799925852363917
X 15 0 3 7.75 0.25 1.75 3844 0.26812 0.6048310211586739
X 15 0 4 7.75 0.25 2.25 3845 0.3134 0.3490305281275661
X 15 0 5 7.75 0.25 2.75 3846 0.36602 0.1662440991739557
X 15 0 6 7.75 0.25 3.25 3847 0.38876 0.05908508840647674
X 15 0 7 7.75 0.25 3.75 3848 0.40016 0.01866577644640179
X 15 0 8 7.75 0.25 4.25 3849 0.4001 0.04866954252094705
X 15 0 9 7.75 0.25 4.75 3850 0.384 0.1658231180954728
X 15 0 10 7.75 0.25 5.25 3851 0.34276 0.3481107991794538
X 15 0 11 7.75 0.25 5.75 3852 0.3019399999999999 0.5852056688692112
X 15 0 12 7.75 0.25 6.25 3853 0.23746 0.8734335385061877
X 15 0 13 7.75 0.25 6.75 3854 0.20628 1.147048542618337
X 15 0 14 7.75 0.25 7.25 3855 0.17534 1.331023506517532
X 15 0 15 7.75 0.25 7.75 3856 0.16662 1.387266129596416
X 15 1 0 7.75 0.75 0.25 3857 0.21938 0.95186499390576
X 15 1 1 7.75 0.75 0.75 3858 0.2357 0.7723838752610057
X 15 1 2 7.75 0.75 1.25 3859 0.27596 0.5696794628667543
X 15 1 3 7.75 0.75 1.75 3860 0.3041 0.3756668199120405
X 15 1 4 7.75 0.75 2.25 3861 0.34644 0.22093263791224
X 15 1 5 7.75 0.75 2.75 3862 0.37458 0.1039701018262599
X 15 1 6 7.75 0.75 3.25 3863 0.4039 0.02985235782270992
X 15 1 7 7.75 0.75 3.75 3864 0.40838 0.01581555402606767
X 15 1 8 7.75 0.75 4.25 3865 0.40406 0.03256298275707725
X 15 1 9 7.75 0.75 4.75 3866 0.39168 0.1370491494226978
X 15 1 10 7.75 0.75 5.25 3867 0.3465200000000001 0.3255718964850314
X 15 1 11 7.75 0.75 5.75 3868 0.32386 0.5606962760745474
X 15 1 12 7.75 0.75 6.25 3869 0.27496 0.7910531149580698
X 15 1 13 7.75 0.75 6.75 3870 0.25 0.9698087888658318
X 15 1 14 7.75 0.75 7.25 3871 0.21726 1.064257714899825
X 15 1 15 7.75 0.75 7.75 3872 0.20798 1.059497280472967
X 15 2 0 7.75 1.25 0.25 3873 0.25444 0.7268431238109307
X 15 2 1 7.75 1.25 0.75 3874 0.28494 0.5472417982523323
X 15 2 2 7.75 1.25 1.25 3875 0.3087 0.3779368385536109
X 15 2 3 7.75 1.25 1.75 3876 0.33634 0.2383481463048377
X 15 2 4 7.75 1.25 2.25 3877 0.36032 0.125275349624032
X 15 2 5 7.75 1.25 2.75 3878 0.37882 0.04497666965469287
X 15 2 6 7.75 1.25 3.25 3879 0.40842 0.009846706994013589
X 15 2 7 7.75 1.25 3.75 3880 0.4181 0.00646229245046338
X 15 2 8 7.75 1.25 4.25 3881 0.41646 0.0298948201631322
X 15 2 9 7.75 1.25 4.75 3882 0.4028600000000001 0.1178426432068134
X 15 2 10 7.75 1.25 5.25 3883 0.37814 0.3152718498127326
X 15 2 11 7.75 1.25 5.75 3884 0.3299799999999999 0.5610045877164724
X 15 2 12 7.75 1.25 6.25 3885 0.28702 0.7844388182383185
X 15 2 13 7.75 1.25 6.75 3886 0.25828 0.9189399000241948
X 15 2 14 7.75 1.25 7.25 3887 0.2538 0.9380606046927171
X 15 2 15 7.75 1.25 7.75 3888 0.2465 0.8649937957607394
X 15 3 0 7.75 1.75 0.25 3889 0.2669 0.6927272864259216
X 15 3 1 7.75 1.75 0.75 3890 0.29114 0.5025727865115108
X 15 3 2 7.75 1.75 1.25 3891 0.3206 0.3176214025567667
X 15 3 3 7.75 1.75 1.75 3892 0.35316 0.1597602061885157
X 15 3 4 7.75 1.75 2.25 3893 0.39222 0.04854411572187847
X 15 3 5 7.75 1.75 2.75 3894 0.3975400000000001 0.008961975041537819
X 15 3 6 7.75 1.75 3.25 3895 0.41726 0.003223774848819735
X 15 3 7 7.75 1.75 3.75 3896 0.42752 -0.002354949232406854
X 15 3 8 7.75 1.75 4.25 3897 0.42236 0.02776644916945977
X 15 3 9 7.75 1.75 4.75 3898 0.4152600000000001 0.1214170487625887
X 15 3 10 7.75 1.75 5.25 3899 0.38788 0.3027242611277081
X 15 3 11 7.75 1.75 5.75 3900 0.34702 0.5524725564379392
X 15 3 12 7.75 1.75 6.25 3901 0.29656 0.7796042175502631
X 15 3 13 7.75 1.75 6.75 3902 0.27208 0.9260334248241845
X 15 3 14 7.75 1.75 7.25 3903 0.2468 0.9456066500798728
X 15 3 15 7.75 1.75 7.75 3904 0.2557 0.8505207580053799
X 15 4 0 7.75 2.25 0.25 3905 0.26916 0.7518459095914138
X 15 4 1 7.75 2.25 0.75 3906 0.29228 0.5623384111052725
X 15 4 2 7.75 2.25 1.25 3907 0.31424 0.3733494599532519
X 15 4 3 7.75 2.25 1.75 3908 0.3585200000000001 0.2089692267653916
X 15 4 4 7.75 2.25 2.25 3909 0.3696 0.08294886733373048
X 15 4 5 7.75 2.25 2.75 3910 0.4068 0.01543578094249538
X 15 4 6 7.75 2.25 3.25 3911 0.41958 -0.001914204864430871
X 15 4 7 7.75 2.25 3.75 3912 0.42446 -0.009268643120131181
X 15 4 8 7.75 2.25 4.25 3913 0.43508 0.02113302791451461
X 15 4 9 7.75 2.25 4.75 3914 0.40712 0.1156237832288353
X 15 4 10 7.75 2.25 5.25 3915 0.38814 0.2715430116797298
X 15 4 11 7.75 2.25 5.75 3916 0.3581800000000001 0.5036199839189892
X 15 4 12 7.75 2.25 6.25 3917 0.3029 0.7800044517781456
X 15 4 13 7.75 2.25 6.75 3918 0.2846399999999999 0.9655395293415808
X 15 4 14 7.75 2.25 7.25 3919 0.2585 1.002595831821318
X 15 4 15 7.75 2.25 7.75 3920 0.26442 0.9093815715122648
X 15 5 0 7.75 2.75 0.25 3921 0.24562 0.8803311435643653
X 15 5 1 7.75 2.75 0.75 3922 0.26794 0.7059870112860063
X 15 5 2 7.75 2.75 1.25 3923 0.28702 0.5218772887221976
X 15 5 3 7.75 2.75 1.75 3924 0.32222 0.358853478544471
X 15 5 4 7.75 2.75 2.25 3925 0.34968 0.2122135205147429
X 15 5 5 7.75 2.75 2.75 3926 0.3902400000000001 0.09335247786405731
X 15 5 6 7.75 2.75 3.25 3927 0.4154800000000001 0.004794892435856955
X 15 5 7 7.75 2.75 3.75 3928 0.4422000000000001 -0.01306255302166057
X 15 5 8 7.75 2.75 4.25 3929 0.42888 0.005781262540284544
X 15 5 9 7.75 2.75 4.75 3930 0.4258200000000001 0.0551535054427259
X 15 5 10 7.75 2.75 5.25 3931 0.3966800000000001 0.194628608188564
X 15 5 11 7.75 2.75 5.75 3932 0.35214 0.4560564642334837
X 15 5 12 7.75 2.75 6.25 3933 0.31728 0.7324961597512014
X 15 5 13 7.75 2.75 6.75 3934 0.27804 0.9472284084715066
X 15 5 14 7.75 2.75 7.25 3935 0.25134 1.043171184561306
X 15 5 15 7.75 2.75 7.75 3936 0.24358 1.009134075623811
X 15 6 0 7.75 3.25 0.25 3937 0.2096 1.139570219405936
X 15 6 1 7.75 3.25 0.75 3938 0.23716 0.9680861186064009
X 15 6 2 7.75 3.25 1.25 3939 0.25852 0.7634963759364112
X 15 6 3 7.75 3.25 1.75 3940 0.29764 0.5553507507180341
X 15 6 4 7.75 3.25 2.25 3941 0.33526 0.3614206384151769
X 15 6 5 7.75 3.25 2.75 3942 0.37324 0.1951115419955779
X 15 6 6 7.75 3.25 3.25 3943 0.403 0.05800524801432004
X 15 6 7 7.75 3.25 3.75 3944 0.41972 -0.01283178734676648
X 15 6 8 7.75 3.25 4.25 3945 0.42176 -0.02762820145602451
X 15 6 9 7.75 3.25 4.75 3946 0.43622 -0.02191106872124167
X 15 6 10 7.75 3.25 5.25 3947 0.405 0.1290624003392935
X 15 6 11 7.75 3.25 5.75 3948 0.36068 0.3876003073114999
X 15 6 12 7.75 3.25 6.25 3949 0.30896 0.6839886008439112
X 15 6 13 7.75 3.25 6.75 3950 0.2691 0.9561656017507001
X 15 6 14 7.75 3.25 7.25 3951 0.23278 1.147615998185732
X 15 6 15 7.75 3.25 7.75 3952 0.21066 1.213020975479865
X 15 7 0 7.75 3.75 0.25 3953 0.16524 1.488108791103788
X 15 7 1 7.75 3.75 0.75 3954 0.18396 1.319434514989303
X 15 7 2 7.75 3.75 1.25 3955 0.22154 1.075859277277326
X 15 7 3 7.75 3.75 1.75 3956 0.25878 0.7914760384801379
X 15 7 4 7.75 3.75 2.25 3957 0.30624 0.5155916716357726
X 15 7 5 7.75 3.75 2.75 3958 0.35222 0.294290578171221
X 15 7 6 7.75 3.75 3.25 3959 0.38412 0.1253009529656887
X 15 7 7 7.75 3.75 3.75 3960 0.41358 0.001990916847701882
X 15 7 8 7.75 3.75 4.25 3961 0.43032 -0.05342065933162229
X 15 7 9 7.75 3.75 4.75 3962 0.4321200000000001 -0.05148164622910001
X 15 7 10 7.75 3.75 5.25 3963 0.40038 0.09943000863593544
X 15 7 11 7.75 3.75 5.75 3964 0.36202 0.367585517775507
X 15 7 12 7.75 3.75 6.25 3965 0.3085 0.7170171347446115
X 15 7 13 7.75 3.75 6.75 3966 0.2495 1.064531686079335
X 15 7 14 7.75 3.75 7.25 3967 0.2089 1.346242741223729
X 15 7 15 7.75 3.75 7.75 3968 0.16924 1.507056263650823
X 15 8 0 7.75 4.25 0.25 3969 0.12928 1.852842282307237
X 15 8 1 7.75 4.25 0.75 3970 0.13566 1.683653583804668
X 15 8 2 7.75 4.25 1.25 3971 0.16856 1.401160067858711
X 15 8 3 7.75 4.25 1.75 3972 0.21772 1.05306155401006
X 15 8 4 7.75 4.25 2.25 3973 0.28478 0.6968038198637039
X 15 8 5 7.75 4.25 2.75 3974 0.3398 0.3847411111511436
X 15 8 6 7.75 4.25 3.25 3975 0.38462 0.1743698866685586
X 15 8 7 7.75 4.25 3.75 3976 0.40762 0.02870269304332928
X 15 8 8 7.75 4.25 4.25 3977 0.4142399999999999 -0.05358035385520179
X 15 8 9 7.75 4.25 4.75 3978 0.43106 -0.02733436149482645
X 15 8 10 7.75 4.25 5.25 3979 0.39992 0.1477917972122002
X 15 8 11 7.75 4.25 5.75 3980 0.3418 0.458235168526638
X 15 8 12 7.75 4.25 6.25 3981 0.29462 0.8496629360751353
X 15 8 13 7.75 4.25 6.75 3982 0.2119 1.260006057617959
X 15 8 14 7.75 4.25 7.25 3983 0.16584 1.617477289401058
X 15 8 15 7.75 4.25 7.75 3984 0.12954 1.841647033688586
X 15 9 0 7.75 4.75 0.25 3985 0.09128 2.196044166411897
X 15 9 1 7.75 4.75 0.75 3986 0.10312 2.016705216443798
X 15 9 2 7.75 4.75 1.25 3987 0.1353 1.691789890882036
X 15 9 3 7.75 4.75 1.75 3988 0.18752 1.284387424460629
X 15 9 4 7.75 4.75 2.25 3989 0.24208 0.8627707415463503
X 15 9 5 7.75 4.75 2.75 3990 0.30914 0.4862410952836292
X 15 9 6 7.75 4.75 3.25 3991 0.36302 0.2068582664622114
X 15 9 7 7.75 4.75 3.75 3992 0.4037599999999999 0.04760220961996639
X 15 9 8 7.75 4.75 4.25 3993 0.40454 -0.0290146522309903
X 15 9 9 7.75 4.75 4.75 3994 0.39982 0.04851821384977987
X 15 9 10 7.75 4.75 5.25 3995 0.3575 0.2733818701541506
X 15 9 11 7.75 4.75 5.75 3996 0.31484 0.6175491091808745
X 15 9 12 7.75 4.75 6.25 3997 0.23814 1.053052434824207
X 15 9 13 7.75 4.75 6.75 3998 0.16692 1.51671210703477
X 15 9 14 7.75 4.75 7.25 3999 0.12754 1.924739727979941
X 15 9 15 7.75 4.75 7.75 4000 0.09772 2.173715581723621
X 15 10 0 7.75 5.25 0.25 4001 0.07122000000000001 2.464084875856068
X 15 10 1 7.75 5.25 0.75 4002 0.08452000000000001 2.268073974680819
X 15 10 2 7.75 5.25 1.25 4003 0.10544 1.906971239086009
X 15 10 3 7.75 5.25 1.75 4004 0.15264 1.451586081163397
X 15 10 4 7.75 5.25 2.25 4005 0.22388 0.9810569192786333
X 15 10 5 7.75 5.25 2.75 4006 0.28688 0.5636011559440116
X 15 10 6 7.75 5.25 3.25 4007 0.36364 0.2392411952945392
X 15 10 7 7.75 5.25 3.75 4008 0.3947000000000001 0.04882972347877609
X 15 10 8 7.75 5.25 4.25 4009 0.40018 -0.006329420609272029
X 15 10 9 7.75 5.25 4.75 4010 0.36996 0.1459868373706781
X 15 10 10 7.75 5.25 5.25 4011 0.33956 0.4116428929168213
X 15 10 11 7.75 5.25 5.75 4012 0.28054 0.7925027382956075
X 15 10 12 7.75 5.25 6.25 4013 0.20324 1.264605340570669
X 15 10 13 7.75 5.25 6.75 4014 0.14422 1.763430451630869
X 15 10 14 7.75 5.25 7.25 4015 0.09876000000000001 2.192720399613278
X 15 10 15 7.75 5.25 7.75 4016 0.07502 2.447951448505459
X 15 11 0 7.75 5.75 0.25 4017 0.05978 2.605727280719797
X 15 11 1 7.75 5.75 0.75 4018 0.06984 2.395760142496987
X 15 11 2 7.75 5.75 1.25 4019 0.09966000000000001 2.009997208453862
X 15 11 3 7.75 5.75 1.75 4020 0.14748 1.526806099318675
X 15 11 4 7.75 5.75 2.25 4021 0.2149 1.03247908510329
X 15 11 5 7.75 5.75 2.75 4022 0.28758 0.5968228573665937
X 15 11 6 7.75 5.75 3.25 4023 0.34806 0.2586692821567069
X 15 11 7 7.75 5.75 3.75 4024 0.37776 0.04078634658790679
X 15 11 8 7.75 5.75 4.25 4025 0.3991 0.01789549607768953
X 15 11 9 7.75 5.75 4.75 4026 0.3624 0.2123381756977283
X 15 11 10 7.75 5.75 5.25 4027 0.31278 0.5191994867373668
X 15 11 11 7.75 5.75 5.75 4028 0.25774 0.9301727408569407
X 15 11 12 7.75 5.75 6.25 4029 0.17842 1.42433312257231
X 15 11 13 7.75 5.75 6.75 4030 0.12102 1.934067652264219
X 15 11 14 7.75 5.75 7.25 4031 0.08571999999999999 2.358336200738388
X 15 11 15 7.75 5.75 7.75 4032 0.06468 2.594566526086932
X 15 12 0 7.75 6.25 0.25 4033 0.0585 2.589894820986506
X 15 12 1 7.75 6.25 0.75 4034 0.06770000000000001 2.371447884397393
X 15 12 2 7.75 6.25 1.25 4035 0.0999 1.979811658018429
X 15 12 3 7.75 6.25 1.75 4036 0.14892 1.496033902464234
X 15 12 4 7.75 6.25 2.25 4037 0.21508 1.006106810792005
X 15 12 5 7.75 6.25 2.75 4038 0.2871199999999999 0.5773692955154458
X 15 12 6 7.75 6.25 3.25 4039 0.33608 0.2456999593380687
X 15 12 7 7.75 6.25 3.75 4040 0.38058 0.0284332416493685
X 15 12 8 7.75 6.25 4.25 4041 0.38412 0.0392548518935363
X 15 12 9 7.75 6.25 4.75 4042 0.3557400000000001 0.2280075782336701
X 15 12 10 7.75 6.25 5.25 4043 0.29922 0.5571567406260338
X 15 12 11 7.75 6.25 5.75 4044 0.23422 0.9804474588747628
X 15 12 12 7.75 6.25 6.25 4045 0.1638 1.47217197920056
X 15 12 13 7.75 6.25 6.75 4046 0.10768 1.96326421345708
X 15 12 14 7.75 6.25 7.25 4047 0.07808 2.360087846650593
X 15 12 15 7.75 6.25 7.75 4048 0.06076 2.585717693327678
X 15 13 0 7.75 6.75 0.25 4049 0.06894 2.409896219012778
X 15 13 1 7.75 6.75 0.75 4050 0.08482000000000001 2.193890335137151
X 15 13 2 7.75 6.75 1.25 4051 0.11704 1.819272491162091
X 15 13 3 7.75 6.75 1.75 4052 0.15982 1.362451019733208
X 15 13 4 7.75 6.75 2.25 4053 0.22036 0.9042992079439298
X 15 13 5 7.75 6.75 2.75 4054 0.28924 0.5063501068768342
X 15 13 6 7.75 6.75 3.25 4055 0.35324 0.2000003660591191
X 15 13 7 7.75 6.75 3.75 4056 0.38728 0.01526236752108858
X 15 13 8 7.75 6.75 4.25 4057 0.3798800000000001 0.05398219875782789
X 15 13 9 7.75 6.75 4.75 4058 0.35234 0.2084323819736421
X 15 13 10 7.75 6.75 5.25 4059 0.31116 0.5201464617576111
X 15 13 11 7.75 6.75 5.75 4060 0.24858 0.9280527591830948
X 15 13 12 7.75 6.75 6.25 4061 0.17644 1.392992367285568
X 15 13 13 7.75 6.75 6.75 4062 0.11774 1.850287686700751
X 15 13 14 7.75 6.75 7.25 4063 0.0868 2.217715737909009
X 15 13 15 7.75 6.75 7.75 4064 0.06798000000000001 2.419067852957868
X 15 14 0 7.75 7.25 0.25 4065 0.08155999999999999 2.099106648003064
X 15 14 1 7.75 7.25 0.75 4066 0.11184 1.893118341296572
X 15 14 2 7.75 7.25 1.25 4067 0.14356 1.55262731706287
X 15 14 3 7.75 7.25 1.75 4068 0.19912 1.146544410350733
X 15 14 4 7.75 7.25 2.25 4069 0.2544 0.7431252449052174
X 15 14 5 7.75 7.25 2.75 4070 0.30326 0.3953416666468777
X 15 14 6 7.75 7.25 3.25 4071 0.36278 0.1328814844753947
X 15 14 7 7.75 7.25 3.75 4072 0.39208 0.01293181641896773
X 15 14 8 7.75 7.25 4.25 4073 0.37714 0.06053530443989895
X 15 14 9 7.75 7.25 4.75 4074 0.35976 0.1963850423413224
X 15 14 10 7.75 7.25 5.25 4075 0.31242 0.4539649768923149
X 15 14 11 7.75 7.25 5.75 4076 0.25382 0.8252397646338093
X 15 14 12 7.75 7.25 6.25 4077 0.19152 1.242533165869024
X 15 14 13 7.75 7.25 6.75 4078 0.13862 1.645346323688193
X 15 14 14 7.75 7.25 7.25 4079 0.10474 1.960633903822876
X 15 14 15 7.75 7.25 7.75 4080 0.09379999999999999 2.123690108660614
X 15 15 0 7.75 7.75 0.25 4081 0.12534 1.71025291654114
X 15 15 1 7.75 7.75 0.75 4082 0.14722 1.519192641765694
X 15 15 2 7.75 7.75 1.25 4083 0.18192 1.223397978118362
X 15 15 3 7.75 7.75 1.75 4084 0.22262 0.8810372238354388
X 15 15 4 7.75 7.75 2.25 4085 0.29134 0.5476282880875941
X 15 15 5 7.75 7.75 2.75 4086 0.3392399999999999 0.2634028882826134
X 15 15 6 7.75 7.75 3.25 4087 0.38012 0.0858417335008331
X 15 15 7 7.75 7.75 3.75 4088 0.3855 0.01520324549094427
X 15 15 8 7.75 7.75 4.25 4089 0.38084 0.06232741741212063
X 15 15 9 7.75 7.75 4.75 4090 0.35204 0.1933598990520717
X 15 15 10 7.75 7.75 5.25 4091 0.32868 0.386377263089811
X 15 15 11 7.75 7.75 5.75 4092 0.27478 0.6944706315067385
X 15 15 12 7.75 7.75 6.25 4093 0.2268 1.05711931801011
X 15 15 13 7.75 7.75 6.75 4094 0.1719 1.397471009822942
X 15 15 14 7.75 7.75 7.25 4095 0.13478 1.646788158640594
X 15 15 15 7.75 7.75 7.75 4096 0.1257 1.756700038948112
